Dy3 Al3 Co9 Ni9
1.0
   6.8535508963015319    0.0000000000000000   -0.0004480893030017
  -3.4263866376813947    5.9355736451765067   -0.0004480893030017
   0.0000000000000000    0.0000000000000000    6.9583492279052734
Dy Al Ni Co
3 3 9 9
direct
   0.0000000000000000    0.0000000000000000    0.0000000000000000 Dy
   0.6666666865348816    0.3333333432674408    0.3333333432674408 Dy
   0.3333333432674408    0.6666666865348816    0.6666666865348816 Dy
   0.3333333432674408    0.6666666865348816    0.1666666716337204 Al
   0.6666666865348816    0.3333333432674408    0.8333333134651184 Al
   0.0000000000000000    0.0000000000000000    0.5000000000000000 Al
   0.3897705078125000    0.3897705078125000    0.0000000000000000 Ni
   0.6102294921875000    0.0000000000000000    0.0000000000000000 Ni
   0.0000000000000000    0.6102294921875000    0.0000000000000000 Ni
   0.0564372539520264    0.7231038808822632    0.3333333432674408 Ni
   0.2768961787223816    0.3333333432674408    0.3333333432674408 Ni
   0.6666666865348816    0.9435628652572632    0.3333333432674408 Ni
   0.7231038808822632    0.0564372539520264    0.6666666865348816 Ni
   0.9435628652572632    0.6666666865348816    0.6666666865348816 Ni
   0.3333333432674408    0.2768961787223816    0.6666666865348816 Ni
   0.9636840820312500    0.2970275878906250    0.1666666716337204 Co
   0.7029724121093750    0.6666564941406250    0.1666666716337204 Co
   0.3333435058593750    0.0363159179687500    0.1666666716337204 Co
   0.2970275878906250    0.9636840820312500    0.8333333134651184 Co
   0.6666564941406250    0.7029724121093750    0.8333333134651184 Co
   0.0363159179687500    0.3333435058593750    0.8333333134651184 Co
   0.6303508281707764    0.6303609609603882    0.5000000000000000 Co
   0.3696390986442566    0.9999898672103882    0.5000000000000000 Co
   0.0000101923942566    0.3696492910385132    0.5000000000000000 Co
