Li18 W3 Se18
1.0
   6.4081473213562816    0.0000000000000000   -0.0004189685478674
  -3.2037101185077370    5.5498282467817717   -0.0004189685478674
   0.0000000000000000    0.0000000000000000   16.3510494232177734
W Li Se
3 18 18
direct
   0.0000000000000000    0.0000000000000000    0.0000000000000000 W
   0.6666666865348816    0.3333333432674408    0.3333333432674408 W
   0.3333333432674408    0.6666666865348816    0.6666666865348816 W
   0.0199508666992188    0.6921386718750000    0.4350585937500000 Li
   0.3078613281250000    0.3278121948242188    0.4350585937500000 Li
   0.6721878051757812    0.9800491333007812    0.4350585937500000 Li
   0.9800491333007812    0.3078613281250000    0.5649414062500000 Li
   0.6921386718750000    0.6721878051757812    0.5649414062500000 Li
   0.3278121948242188    0.0199508666992188    0.5649414062500000 Li
   0.6866175532341003    0.0254720449447632    0.7683919668197632 Li
   0.9745280146598816    0.6611455678939819    0.7683919668197632 Li
   0.3388545513153076    0.3133824765682220    0.7683919668197632 Li
   0.6467158198356628    0.6411947011947632    0.8982747793197632 Li
   0.3588054180145264    0.0055211782455444    0.8982747793197632 Li
   0.9944788813591003    0.3532842099666595    0.8982747793197632 Li
   0.3532842099666595    0.3588054180145264    0.1017253398895264 Li
   0.6411947011947632    0.9944788813591003    0.1017253398895264 Li
   0.0055211782455444    0.6467158198356628    0.1017253398895264 Li
   0.3133824765682220    0.9745280146598816    0.2316080927848816 Li
   0.0254720449447632    0.3388545513153076    0.2316080927848816 Li
   0.6611455678939819    0.6866175532341003    0.2316080927848816 Li
   0.6721191406250000    0.6525878906250000    0.4044113159179688 Se
   0.3474121093750000    0.0195312500000000    0.4044113159179688 Se
   0.9804687500000000    0.3278808593750000    0.4044113159179688 Se
   0.3278808593750000    0.3474121093750000    0.5955886840820312 Se
   0.6525878906250000    0.9804687500000000    0.5955886840820312 Se
   0.0195312500000000    0.6721191406250000    0.5955886840820312 Se
   0.3387858867645264    0.9859212636947632    0.7377446889877319 Se
   0.0140787959098816    0.3528645932674408    0.7377446889877319 Se
   0.6471354365348816    0.6612142324447632    0.7377446889877319 Se
   0.9945475459098816    0.6807454824447632    0.9289220571517944 Se
   0.3192546367645264    0.3138020932674408    0.9289220571517944 Se
   0.6861979365348816    0.0054525136947632    0.9289220571517944 Se
   0.0054525136947632    0.3192546367645264    0.0710780620574951 Se
   0.6807454824447632    0.6861979365348816    0.0710780620574951 Se
   0.3138020932674408    0.9945475459098816    0.0710780620574951 Se
   0.6612142324447632    0.0140787959098816    0.2622553706169128 Se
   0.9859212636947632    0.6471354365348816    0.2622553706169128 Se
   0.3528645932674408    0.3387858867645264    0.2622553706169128 Se
