Mg3 Sb9 S24
1.0
   7.4168510278490487    0.0000000000000000   -0.0004849182063170
  -3.7080047467378461    6.4234243178755595   -0.0004849182063170
   0.0000000000000000    0.0000000000000000   17.4514541625976562
Mg S Sb S
3 6 9 18
direct
   0.0000000000000000    0.0000000000000000    0.0000000000000000 Mg
   0.6666666865348816    0.3333333432674408    0.3333333432674408 Mg
   0.3333333432674408    0.6666666865348816    0.6666666865348816 Mg
   0.3333333432674408    0.6666666865348816    0.9172058105468750 S
   0.6666666865348816    0.3333333432674408    0.0827941894531250 S
   0.0000000000000000    0.0000000000000000    0.2505391836166382 S
   0.3333333730697632    0.6666666865348816    0.4161275625228882 S
   0.6666666865348816    0.3333333730697632    0.5838725566864014 S
   0.0000000000000000    0.0000000000000000    0.7494608759880066 S
   0.3333333432674408    0.1666666716337204    0.1666666716337204 Sb
   0.8333333134651184    0.1666666716337204    0.1666666716337204 Sb
   0.8333333134651184    0.6666666269302368    0.1666666716337204 Sb
   0.1666666716337204    0.3333333432674408    0.8333333134651184 Sb
   0.1666666716337204    0.8333333134651184    0.8333333134651184 Sb
   0.6666666269302368    0.8333333134651184    0.8333333134651184 Sb
   0.0000000000000000    0.5000000000000000    0.5000000000000000 Sb
   0.5000000000000000    0.5000000000000000    0.5000000000000000 Sb
   0.5000000000000000    0.0000000000000000    0.5000000000000000 Sb
   0.4944915771484375    0.9889831542968750    0.7523803710937500 S
   0.0110168457031250    0.5055084228515625    0.7523803710937500 S
   0.4944915771484375    0.5055084228515625    0.7523803710937500 S
   0.9889831542968750    0.4944915771484375    0.2476196289062500 S
   0.5055084228515625    0.0110168457031250    0.2476196289062500 S
   0.5055084228515625    0.4944915771484375    0.2476196289062500 S
   0.1611583232879639    0.3223165273666382    0.0857137441635132 S
   0.6776835322380066    0.8388417959213257    0.0857137441635132 S
   0.1611583232879639    0.8388417959213257    0.0857137441635132 S
   0.6556499004364014    0.8278249502182007    0.5809530019760132 S
   0.1721751093864441    0.3443502187728882    0.5809530019760132 S
   0.1721751093864441    0.8278249502182007    0.5809530019760132 S
   0.8278249502182007    0.6556499004364014    0.4190471172332764 S
   0.3443502187728882    0.1721751093864441    0.4190471172332764 S
   0.8278249502182007    0.1721751093864441    0.4190471172332764 S
   0.3223165273666382    0.1611583232879639    0.9142863154411316 S
   0.8388417959213257    0.6776835322380066    0.9142863154411316 S
   0.8388417959213257    0.1611583232879639    0.9142863154411316 S
