Sr2 Ca4 Mg2 Cu2 Pd2
1.0
   4.5741515061843057    0.0000000000000000   -0.0002990607921707
  -0.0003110718802026    4.7575506960620784   -0.0003110515427997
   0.0000000000000000    0.0000000000000000   15.7222509384155273
Ca Pd Mg Cu Sr
4 2 2 2 2
direct
   0.0000000000000000    0.5000000000000000    0.8560791015625000 Ca
   0.0000000000000000    0.0000000000000000    0.3560791015625000 Ca
   0.0000000000000000    0.0000000000000000    0.0079345703125000 Ca
   0.0000000000000000    0.5000000000000000    0.5079345703125000 Ca
   0.0000000000000000    0.5000000000000000    0.2066650390625000 Pd
   0.0000000000000000    0.0000000000000000    0.7066650390625000 Pd
   0.5000000000000000    0.0000000000000000    0.8305358886718750 Mg
   0.5000000000000000    0.5000000000000000    0.3305358886718750 Mg
   0.5000000000000000    0.0000000000000000    0.4991607666015625 Cu
   0.5000000000000000    0.5000000000000000    0.9991607666015625 Cu
   0.5000000000000000    0.5000000000000000    0.6720066070556641 Sr
   0.5000000000000000    0.0000000000000000    0.1720066070556641 Sr
