Na8 Pb8 F16
1.0
   7.6526508167737823    0.0000000000000000   -0.0005003349391414
  -0.0005243507216461    8.0194491997264219   -0.0005243164403993
   0.0000000000000000    0.0000000000000000    7.5871477127075195
Na F Pb
8 16 8
direct
   0.5000000000000000    0.0000000000000000    0.5090026855468750 Na
   0.0000000000000000    0.5000000000000000    0.5090026855468750 Na
   0.5000000000000000    0.5000000000000000    0.0090026855468750 Na
   0.0000000000000000    0.0000000000000000    0.0090026855468750 Na
   0.0000000000000000    0.0000000000000000    0.5011901855468750 Na
   0.5000000000000000    0.5000000000000000    0.5011901855468750 Na
   0.0000000000000000    0.5000000000000000    0.0011901855468750 Na
   0.5000000000000000    0.0000000000000000    0.0011901855468750 Na
   0.2534637451171875    0.5009307861328125    0.3397827148437500 F
   0.7465362548828125    0.4990692138671875    0.3397827148437500 F
   0.7534637451171875    0.9990692138671875    0.3397827148437500 F
   0.2465362548828125    0.0009307861328125    0.3397827148437500 F
   0.2534637451171875    0.0009307861328125    0.8397827148437500 F
   0.7465362548828125    0.9990692138671875    0.8397827148437500 F
   0.7534637451171875    0.4990692138671875    0.8397827148437500 F
   0.2465362548828125    0.5009307861328125    0.8397827148437500 F
   0.9437561035156250    0.7472839355468750    0.0601196289062500 F
   0.0562438964843750    0.2527160644531250    0.0601196289062500 F
   0.4437561035156250    0.7527160644531250    0.0601196289062500 F
   0.5562438964843750    0.2472839355468750    0.0601196289062500 F
   0.9437561035156250    0.2472839355468750    0.5601196289062500 F
   0.0562438964843750    0.7527160644531250    0.5601196289062500 F
   0.4437561035156250    0.2527160644531250    0.5601196289062500 F
   0.5562438964843750    0.7472839355468750    0.5601196289062500 F
   0.3069915771484375    0.2406616210937500    0.2489013671875000 Pb
   0.6930084228515625    0.7593383789062500    0.2489013671875000 Pb
   0.8069915771484375    0.2593383789062500    0.2489013671875000 Pb
   0.1930084228515625    0.7406616210937500    0.2489013671875000 Pb
   0.3069915771484375    0.7406616210937500    0.7489013671875000 Pb
   0.6930084228515625    0.2593383789062500    0.7489013671875000 Pb
   0.8069915771484375    0.7593383789062500    0.7489013671875000 Pb
   0.1930084228515625    0.2406616210937500    0.7489013671875000 Pb
