Ba8 Zr4 Nb4 O24
1.0
   8.3993501483687716    0.0000000000000000   -0.0005491545930856
  -0.0005491904983190    8.3993501304143940   -0.0005491545930856
   0.0000000000000000    0.0000000000000000    8.3993501663208008
Nb Zr Ba O
4 4 8 24
direct
   0.0000000000000000    0.0000000000000000    0.0000000000000000 Nb
   0.0000000000000000    0.5000000000000000    0.5000000000000000 Nb
   0.5000000000000000    0.0000000000000000    0.5000000000000000 Nb
   0.5000000000000000    0.5000000000000000    0.0000000000000000 Nb
   0.5000000000000000    0.0000000000000000    0.0000000000000000 Zr
   0.0000000000000000    0.5000000000000000    0.0000000000000000 Zr
   0.0000000000000000    0.0000000000000000    0.5000000000000000 Zr
   0.5000000000000000    0.5000000000000000    0.5000000000000000 Zr
   0.2500000000000000    0.2500000000000000    0.2500000000000000 Ba
   0.7500000000000000    0.7500000000000000    0.2500000000000000 Ba
   0.7500000000000000    0.2500000000000000    0.7500000000000000 Ba
   0.2500000000000000    0.7500000000000000    0.7500000000000000 Ba
   0.2500000000000000    0.2500000000000000    0.7500000000000000 Ba
   0.7500000000000000    0.7500000000000000    0.7500000000000000 Ba
   0.2500000000000000    0.7500000000000000    0.2500000000000000 Ba
   0.7500000000000000    0.2500000000000000    0.2500000000000000 Ba
   0.7614135742187500    0.0000000000000000    0.0000000000000000 O
   0.2385864257812500    0.0000000000000000    0.0000000000000000 O
   0.0000000000000000    0.7614135742187500    0.0000000000000000 O
   0.0000000000000000    0.2385864257812500    0.0000000000000000 O
   0.0000000000000000    0.0000000000000000    0.7614135742187500 O
   0.0000000000000000    0.0000000000000000    0.2385864257812500 O
   0.7614135742187500    0.5000000000000000    0.5000000000000000 O
   0.2385864257812500    0.5000000000000000    0.5000000000000000 O
   0.0000000000000000    0.2614135742187500    0.5000000000000000 O
   0.0000000000000000    0.7385864257812500    0.5000000000000000 O
   0.0000000000000000    0.5000000000000000    0.2614135742187500 O
   0.0000000000000000    0.5000000000000000    0.7385864257812500 O
   0.2614135742187500    0.0000000000000000    0.5000000000000000 O
   0.7385864257812500    0.0000000000000000    0.5000000000000000 O
   0.5000000000000000    0.7614135742187500    0.5000000000000000 O
   0.5000000000000000    0.2385864257812500    0.5000000000000000 O
   0.5000000000000000    0.0000000000000000    0.2614135742187500 O
   0.5000000000000000    0.0000000000000000    0.7385864257812500 O
   0.2614135742187500    0.5000000000000000    0.0000000000000000 O
   0.7385864257812500    0.5000000000000000    0.0000000000000000 O
   0.5000000000000000    0.2614135742187500    0.0000000000000000 O
   0.5000000000000000    0.7385864257812500    0.0000000000000000 O
   0.5000000000000000    0.5000000000000000    0.7614135742187500 O
   0.5000000000000000    0.5000000000000000    0.2385864257812500 O
