Sm4 Al4 Fe4
1.0
   6.7723117565474418    0.0000000000000000   -1.5982545008912772
  -0.0003345681629766    4.0501508488016933   -0.0002648013131504
   0.0000000000000000    0.0000000000000000   10.0761470794677734
Al Fe Sm
4 4 4
direct
   0.7967395782470703    0.0000000000000000    0.4140262603759766 Al
   0.2032604217529297    0.0000000000000000    0.5859737396240234 Al
   0.2967395782470703    0.5000000000000000    0.4140262603759766 Al
   0.7032604217529297    0.5000000000000000    0.5859737396240234 Al
   0.9036560058593750    0.0000000000000000    0.6842651367187500 Fe
   0.0963439941406250    0.0000000000000000    0.3157348632812500 Fe
   0.4036560058593750    0.5000000000000000    0.6842651367187500 Fe
   0.5963439941406250    0.5000000000000000    0.3157348632812500 Fe
   0.6211547851562500    0.0000000000000000    0.8409729003906250 Sm
   0.3788452148437500    0.0000000000000000    0.1590270996093750 Sm
   0.1211547851562500    0.5000000000000000    0.8409729003906250 Sm
   0.8788452148437500    0.5000000000000000    0.1590270996093750 Sm
