La2 Cu14 O24
1.0
   7.6657490566444686    0.0000000000000000   -0.0005011913099867
  -0.0005012240792491    7.6657490402582305   -0.0005011913099867
   0.0000000000000000    0.0000000000000000    7.6657490730285645
La Cu O
2 14 24
direct
   0.0000000000000000    0.0000000000000000    0.0000000000000000 La
   0.5000000000000000    0.5000000000000000    0.5000000000000000 La
   0.5000000000000000    0.0000000000000000    0.0000000000000000 Cu
   0.0000000000000000    0.5000000000000000    0.0000000000000000 Cu
   0.0000000000000000    0.0000000000000000    0.5000000000000000 Cu
   0.0000000000000000    0.5000000000000000    0.5000000000000000 Cu
   0.5000000000000000    0.0000000000000000    0.5000000000000000 Cu
   0.5000000000000000    0.5000000000000000    0.0000000000000000 Cu
   0.2500000000000000    0.2500000000000000    0.2500000000000000 Cu
   0.7500000000000000    0.7500000000000000    0.2500000000000000 Cu
   0.7500000000000000    0.2500000000000000    0.7500000000000000 Cu
   0.2500000000000000    0.7500000000000000    0.7500000000000000 Cu
   0.7500000000000000    0.7500000000000000    0.7500000000000000 Cu
   0.2500000000000000    0.2500000000000000    0.7500000000000000 Cu
   0.2500000000000000    0.7500000000000000    0.2500000000000000 Cu
   0.7500000000000000    0.2500000000000000    0.2500000000000000 Cu
   0.5000000000000000    0.1925354003906250    0.3378906250000000 O
   0.5000000000000000    0.8074645996093750    0.3378906250000000 O
   0.5000000000000000    0.1925354003906250    0.6621093750000000 O
   0.5000000000000000    0.8074645996093750    0.6621093750000000 O
   0.3378906250000000    0.5000000000000000    0.1925354003906250 O
   0.3378906250000000    0.5000000000000000    0.8074645996093750 O
   0.6621093750000000    0.5000000000000000    0.1925354003906250 O
   0.6621093750000000    0.5000000000000000    0.8074645996093750 O
   0.1925354003906250    0.3378906250000000    0.5000000000000000 O
   0.8074645996093750    0.3378906250000000    0.5000000000000000 O
   0.1925354003906250    0.6621093750000000    0.5000000000000000 O
   0.8074645996093750    0.6621093750000000    0.5000000000000000 O
   0.0000000000000000    0.6925354003906250    0.8378906250000000 O
   0.0000000000000000    0.3074645996093750    0.8378906250000000 O
   0.0000000000000000    0.6925354003906250    0.1621093750000000 O
   0.0000000000000000    0.3074645996093750    0.1621093750000000 O
   0.8378906250000000    0.0000000000000000    0.6925354003906250 O
   0.8378906250000000    0.0000000000000000    0.3074645996093750 O
   0.1621093750000000    0.0000000000000000    0.6925354003906250 O
   0.1621093750000000    0.0000000000000000    0.3074645996093750 O
   0.6925354003906250    0.8378906250000000    0.0000000000000000 O
   0.3074645996093750    0.8378906250000000    0.0000000000000000 O
   0.6925354003906250    0.1621093750000000    0.0000000000000000 O
   0.3074645996093750    0.1621093750000000    0.0000000000000000 O
