Er2 Si4 Ru4
1.0
   3.9977497969060019    0.0000000000000000   -0.0002613752997789
  -0.0002613923892128    3.9977497883604469   -0.0002613752997789
   0.0000000000000000    0.0000000000000000    9.9844474792480469
Er Ru Si
2 4 4
direct
   0.0000000000000000    0.0000000000000000    0.0000000000000000 Er
   0.5000000000000000    0.5000000000000000    0.5000000000000000 Er
   0.0000000000000000    0.5000000000000000    0.2500000000000000 Ru
   0.5000000000000000    0.0000000000000000    0.2500000000000000 Ru
   0.0000000000000000    0.5000000000000000    0.7500000000000000 Ru
   0.5000000000000000    0.0000000000000000    0.7500000000000000 Ru
   0.5000000000000000    0.5000000000000000    0.8760375976562500 Si
   0.5000000000000000    0.5000000000000000    0.1239624023437500 Si
   0.0000000000000000    0.0000000000000000    0.3760375976562500 Si
   0.0000000000000000    0.0000000000000000    0.6239624023437500 Si
