Eu2 Co4 Ge4
1.0
   4.0501508626204199    0.0000000000000000   -0.0002648013131504
  -0.0002648186265864    4.0501508539628528   -0.0002648013131504
   0.0000000000000000    0.0000000000000000    9.8796501159667969
Eu Co Ge
2 4 4
direct
   0.0000000000000000    0.0000000000000000    0.0000000000000000 Eu
   0.5000000000000000    0.5000000000000000    0.5000000000000000 Eu
   0.0000000000000000    0.5000000000000000    0.2500000000000000 Co
   0.5000000000000000    0.0000000000000000    0.2500000000000000 Co
   0.0000000000000000    0.5000000000000000    0.7500000000000000 Co
   0.5000000000000000    0.0000000000000000    0.7500000000000000 Co
   0.0000000000000000    0.0000000000000000    0.3637084960937500 Ge
   0.0000000000000000    0.0000000000000000    0.6362915039062500 Ge
   0.5000000000000000    0.5000000000000000    0.8637084960937500 Ge
   0.5000000000000000    0.5000000000000000    0.1362915039062500 Ge
