Mn6 Fe3 O6 F6
1.0
   3.4868469163756459    0.0000000000000000   -0.0002279721604279
  -1.7432256450240056    3.0198122075336062   -0.0002279721604279
   0.0000000000000000    0.0000000000000000   21.0277442932128906
Fe O F Mn
3 6 6 6
direct
   0.0000000000000000    0.0000000000000000    0.0000000000000000 Fe
   0.6666666865348816    0.3333333432674408    0.3333333432674408 Fe
   0.3333333432674408    0.6666666865348816    0.6666666865348816 Fe
   0.0000000000000000    0.0000000000000000    0.1102294921875000 O
   0.0000000000000000    0.0000000000000000    0.8897705078125000 O
   0.6666666865348816    0.3333333432674408    0.4435628354549408 O
   0.6666666865348816    0.3333333432674408    0.2231038510799408 O
   0.3333333432674408    0.6666666865348816    0.7768961787223816 O
   0.3333333432674408    0.6666666865348816    0.5564371943473816 O
   0.3333333432674408    0.6666666865348816    0.3121032714843750 F
   0.6666666865348816    0.3333333432674408    0.6878967285156250 F
   0.0000000000000000    0.0000000000000000    0.6454366445541382 F
   0.3333333730697632    0.6666666865348816    0.0212300717830658 F
   0.6666666865348816    0.3333333730697632    0.9787699580192566 F
   0.0000000000000000    0.0000000000000000    0.3545634150505066 F
   0.0000000000000000    0.0000000000000000    0.5519104003906250 Mn
   0.0000000000000000    0.0000000000000000    0.4480895996093750 Mn
   0.6666666865348816    0.3333333432674408    0.8852437734603882 Mn
   0.6666666865348816    0.3333333432674408    0.7814229726791382 Mn
   0.3333333432674408    0.6666666865348816    0.2185771465301514 Mn
   0.3333333432674408    0.6666666865348816    0.1147562861442566 Mn
