Ba4 La4 O16
1.0
   3.9584469710622696    0.0000000000000000   -0.0002588056572528
  -0.0002588225786764    3.9584469626007279   -0.0002588056572528
   0.0000000000000000    0.0000000000000000   24.6302490234375000
O Ba La O
8 4 4 8
direct
   0.0000000000000000    0.0000000000000000    0.2041625976562500 O
   0.0000000000000000    0.0000000000000000    0.7958374023437500 O
   0.5000000000000000    0.5000000000000000    0.7041625976562500 O
   0.5000000000000000    0.5000000000000000    0.2958374023437500 O
   0.5000000000000000    0.5000000000000000    0.4886474609375000 O
   0.5000000000000000    0.5000000000000000    0.5113525390625000 O
   0.0000000000000000    0.0000000000000000    0.9886474609375000 O
   0.0000000000000000    0.0000000000000000    0.0113525390625000 O
   0.5000000000000000    0.5000000000000000    0.8116455078125000 Ba
   0.5000000000000000    0.5000000000000000    0.1883544921875000 Ba
   0.0000000000000000    0.0000000000000000    0.3116455078125000 Ba
   0.0000000000000000    0.0000000000000000    0.6883544921875000 Ba
   0.0000000000000000    0.0000000000000000    0.1012878417968750 La
   0.0000000000000000    0.0000000000000000    0.8987121582031250 La
   0.5000000000000000    0.5000000000000000    0.6012878417968750 La
   0.5000000000000000    0.5000000000000000    0.3987121582031250 La
   0.0000000000000000    0.5000000000000000    0.3904266357421875 O
   0.5000000000000000    0.0000000000000000    0.3904266357421875 O
   0.0000000000000000    0.5000000000000000    0.6095733642578125 O
   0.5000000000000000    0.0000000000000000    0.6095733642578125 O
   0.5000000000000000    0.0000000000000000    0.8904266357421875 O
   0.0000000000000000    0.5000000000000000    0.8904266357421875 O
   0.5000000000000000    0.0000000000000000    0.1095733642578125 O
   0.0000000000000000    0.5000000000000000    0.1095733642578125 O
