Zr1 Ni3
1.0
   3.9060501968822656    0.0000000000000000   -0.0002553799244645
  -0.0002553966219043    3.9060501885327272   -0.0002553799244645
   0.0000000000000000    0.0000000000000000    3.9060502052307129
Zr Ni
1 3
direct
   0.0000000000000000    0.0000000000000000    0.0000000000000000 Zr
   0.5000000000000000    0.5000000000000000    0.0000000000000000 Ni
   0.0000000000000000    0.5000000000000000    0.5000000000000000 Ni
   0.5000000000000000    0.0000000000000000    0.5000000000000000 Ni
