Li9 Mn3 Co9 O24
1.0
   5.9627513758055457    0.0000000000000000   -0.0003898482915476
  -2.9810374135985112    5.1640894558863746   -0.0003898482915476
   0.0000000000000000    0.0000000000000000   14.9886503219604492
Mn O Li Co O
3 6 9 9 18
direct
   0.0000000000000000    0.0000000000000000    0.0000000000000000 Mn
   0.6666666865348816    0.3333333432674408    0.3333333432674408 Mn
   0.3333333432674408    0.6666666865348816    0.6666666865348816 Mn
   0.6666666865348816    0.3333333432674408    0.0700149536132812 O
   0.3333333432674408    0.6666666865348816    0.9299850463867188 O
   0.3333333730697632    0.6666666865348816    0.4033482968807220 O
   0.0000000000000000    0.0000000000000000    0.2633183896541595 O
   0.0000000000000000    0.0000000000000000    0.7366816401481628 O
   0.6666666865348816    0.3333333730697632    0.5966517329216003 O
   0.3333333432674408    0.1666666716337204    0.1666666716337204 Li
   0.8333333134651184    0.1666666716337204    0.1666666716337204 Li
   0.8333333134651184    0.6666666269302368    0.1666666716337204 Li
   0.1666666716337204    0.3333333432674408    0.8333333134651184 Li
   0.1666666716337204    0.8333333134651184    0.8333333134651184 Li
   0.6666666269302368    0.8333333134651184    0.8333333134651184 Li
   0.0000000000000000    0.5000000000000000    0.5000000000000000 Li
   0.5000000000000000    0.5000000000000000    0.5000000000000000 Li
   0.5000000000000000    0.0000000000000000    0.5000000000000000 Li
   0.5000000000000000    0.5000000000000000    0.0000000000000000 Co
   0.5000000000000000    0.0000000000000000    0.0000000000000000 Co
   0.0000000000000000    0.5000000000000000    0.0000000000000000 Co
   0.1666667461395264    0.8333333730697632    0.3333333432674408 Co
   0.1666666865348816    0.3333333432674408    0.3333333432674408 Co
   0.6666666865348816    0.8333333730697632    0.3333333432674408 Co
   0.8333333730697632    0.1666667461395264    0.6666666865348816 Co
   0.8333333730697632    0.6666666865348816    0.6666666865348816 Co
   0.3333333432674408    0.1666666865348816    0.6666666865348816 Co
   0.6920137405395508    0.8460068702697754    0.0700073242187500 O
   0.1539931297302246    0.8460068702697754    0.0700073242187500 O
   0.1539931297302246    0.3079862594604492    0.0700073242187500 O
   0.8460068702697754    0.6920137405395508    0.9299926757812500 O
   0.8460068702697754    0.1539931297302246    0.9299926757812500 O
   0.3079862594604492    0.1539931297302246    0.9299926757812500 O
   0.3586804866790771    0.1793402433395386    0.4033406674861908 O
   0.8206598162651062    0.1793402135372162    0.4033406674861908 O
   0.8206598162651062    0.6413196325302124    0.4033406674861908 O
   0.5126736164093018    0.0253471136093140    0.2633260190486908 O
   0.5126735568046570    0.4873265027999878    0.2633260190486908 O
   0.9746529459953308    0.4873264729976654    0.2633260190486908 O
   0.0253471136093140    0.5126736164093018    0.7366740107536316 O
   0.4873265027999878    0.5126735568046570    0.7366740107536316 O
   0.4873264729976654    0.9746529459953308    0.7366740107536316 O
   0.1793402433395386    0.3586804866790771    0.5966593623161316 O
   0.1793402135372162    0.8206598162651062    0.5966593623161316 O
   0.6413196325302124    0.8206598162651062    0.5966593623161316 O
