V4 O10
1.0
   5.1142205857494494    0.0000000000000000    0.3220957291161415
   2.4058500407234020    6.1498821043102820    1.9754026765028425
   0.0000000000000000    0.0000000000000000    7.2596483230590820
V O V
2 10 2
direct
   0.0000000000000000    0.5000000000000000    0.0000000000000000 V
   0.0000000000000000    0.5000000000000000    0.5000000000000000 V
   0.8437194824218750    0.2818298339843750    0.1686401367187500 O
   0.1562805175781250    0.7181701660156250    0.8313598632812500 O
   0.1913757324218750    0.0720825195312500    0.9397583007812500 O
   0.8086242675781250    0.9279174804687500    0.0602416992187500 O
   0.6689758300781250    0.0562667846679688    0.6818695068359375 O
   0.3310241699218750    0.9437332153320312    0.3181304931640625 O
   0.8244323730468750    0.4913330078125000    0.7429199218750000 O
   0.1755676269531250    0.5086669921875000    0.2570800781250000 O
   0.0871582031250000    0.2109069824218750    0.5484313964843750 O
   0.9128417968750000    0.7890930175781250    0.4515686035156250 O
   0.9890213012695312    0.0252685546875000    0.7785644531250000 V
   0.0109786987304688    0.9747314453125000    0.2214355468750000 V
