Mn3 Ni1 P4
1.0
   5.5014076658341562    0.0000000000000000   -0.1768531974908592
  -0.0002371877409095    3.5130512559231097   -0.0002296854165208
   0.0000000000000000    0.0000000000000000    6.0020503997802734
P Mn P Mn Ni
2 2 2 1 1
direct
   0.9921875000000000    0.0000000000000000    0.3754882812500000 P
   0.4511718750000000    0.0000000000000000    0.9821777343750000 P
   0.0053710937500000    0.0000000000000000    0.9948730468750000 Mn
   0.6447753906250000    0.0000000000000000    0.5898437500000000 Mn
   0.8476562500000000    0.5000000000000000    0.7926025390625000 P
   0.3583984375000000    0.5000000000000000    0.3979492187500000 P
   0.6972656250000000    0.5000000000000000    0.1785888671875000 Mn
   0.2832031250000000    0.5000000000000000    0.7639007568359375 Ni
