Cs4 Cl12
1.0
   6.5391467693029650    0.0000000000000000   -4.3415153481473494
  -0.0009295603473685    7.6264466509874982   -0.0004986216986365
   0.0000000000000000    0.0000000000000000   13.7834529876708984
Cl Cs
12 4
direct
   0.1388854980468750    0.4302978515625000    0.3064575195312500 Cl
   0.8611145019531250    0.9302978515625000    0.1935424804687500 Cl
   0.8611145019531250    0.5697021484375000    0.6935424804687500 Cl
   0.1388854980468750    0.0697021484375000    0.8064575195312500 Cl
   0.4972534179687500    0.6910705566406250    0.9149169921875000 Cl
   0.5027465820312500    0.1910705566406250    0.5850830078125000 Cl
   0.5027465820312500    0.3089294433593750    0.0850830078125000 Cl
   0.4972534179687500    0.8089294433593750    0.4149169921875000 Cl
   0.1804199218750000    0.6833496093750000    0.0762710571289062 Cl
   0.8195800781250000    0.1833496093750000    0.4237289428710938 Cl
   0.8195800781250000    0.3166503906250000    0.9237289428710938 Cl
   0.1804199218750000    0.8166503906250000    0.5762710571289062 Cl
   0.7379150390625000    0.6014404296875000    0.3107910156250000 Cs
   0.2620849609375000    0.1014404296875000    0.1892089843750000 Cs
   0.2620849609375000    0.3985595703125000    0.6892089843750000 Cs
   0.7379150390625000    0.8985595703125000    0.8107910156250000 Cs
