Zn6 Sn6 O18
1.0
   5.6614484665984497    0.0000000000000000   -0.0003701489250992
  -2.8304030522838763    4.9031436142103830   -0.0003701489250992
   0.0000000000000000    0.0000000000000000   14.2812500000000000
Zn Sn O
6 6 18
direct
   0.6666666865348816    0.3333333432674408    0.2100372314453125 Zn
   0.3333333134651184    0.6666666269302368    0.7899627685546875 Zn
   0.3333333730697632    0.6666666865348816    0.5433706045150757 Zn
   0.0000000000000000    0.0000000000000000    0.1232961118221283 Zn
   0.0000000000000000    0.0000000000000000    0.8767039179801941 Zn
   0.6666666269302368    0.3333333432674408    0.4566294550895691 Zn
   0.3333333432674408    0.6666666865348816    0.0072937011718750 Sn
   0.6666666269302368    0.3333333134651184    0.9927062988281250 Sn
   0.0000000000000000    0.0000000000000000    0.3406270444393158 Sn
   0.3333333432674408    0.6666666269302368    0.3260396420955658 Sn
   0.6666666865348816    0.3333333730697632    0.6739603877067566 Sn
   0.0000000000000000    0.0000000000000000    0.6593729853630066 Sn
   0.7000732421875000    0.0131835937500000    0.7508850097656250 O
   0.9868164062500000    0.6868896484375000    0.7508850097656250 O
   0.3131103515625000    0.2999267578125000    0.7508850097656250 O
   0.2999267578125000    0.9868164062500000    0.2491149902343750 O
   0.0131835937500000    0.3131103515625000    0.2491149902343750 O
   0.6868896484375000    0.7000732421875000    0.2491149902343750 O
   0.3667399883270264    0.3465169370174408    0.0842183828353882 O
   0.6534830927848816    0.0202230215072632    0.0842183828353882 O
   0.9797770380973816    0.6332601308822632    0.0842183828353882 O
   0.9665934443473816    0.3201497495174408    0.5824483633041382 O
   0.6798502802848816    0.6464437246322632    0.5824483633041382 O
   0.3535563945770264    0.0334066152572632    0.5824483633041382 O
   0.0334066152572632    0.6798502802848816    0.4175517559051514 O
   0.3201497495174408    0.3535563945770264    0.4175517559051514 O
   0.6464437246322632    0.9665934443473816    0.4175517559051514 O
   0.6332601308822632    0.6534830927848816    0.9157816767692566 O
   0.3465169370174408    0.9797770380973816    0.9157816767692566 O
   0.0202230215072632    0.3667399883270264    0.9157816767692566 O
