Mg1 Cr1 Ni2
1.0
   3.9584469710622696    0.0000000000000000   -0.0002588056572528
  -0.0002588225786764    3.9584469626007279   -0.0002588056572528
   0.0000000000000000    0.0000000000000000    3.7357492446899414
Cr Mg Ni
1 1 2
direct
   0.0000000000000000    0.0000000000000000    0.0000000000000000 Cr
   0.5000000000000000    0.5000000000000000    0.0000000000000000 Mg
   0.0000000000000000    0.5000000000000000    0.5000000000000000 Ni
   0.5000000000000000    0.0000000000000000    0.5000000000000000 Ni
