Y2 Cr2 Fe12 Ru2 W2
1.0
   4.7444524663610910    0.0000000000000000   -0.0003101951719544
  -0.0005560429730661    8.5041522616192076   -0.0005560066198285
   0.0000000000000000    0.0000000000000000    8.2814540863037109
Cr Y Ru W Fe
2 2 2 2 12
direct
   0.0000000000000000    0.5000000000000000    0.7194824218750000 Cr
   0.5000000000000000    0.0000000000000000    0.2194824218750000 Cr
   0.5000000000000000    0.0000000000000000    0.4957275390625000 Y
   0.0000000000000000    0.5000000000000000    0.9957275390625000 Y
   0.0000000000000000    0.5000000000000000    0.5544586181640625 Ru
   0.5000000000000000    0.0000000000000000    0.0544586181640625 Ru
   0.5000000000000000    0.0000000000000000    0.8179779052734375 W
   0.0000000000000000    0.5000000000000000    0.3179779052734375 W
   0.5000000000000000    0.2872619628906250    0.9848251342773438 Fe
   0.5000000000000000    0.7127380371093750    0.9848251342773438 Fe
   0.0000000000000000    0.7872619628906250    0.4848251342773438 Fe
   0.0000000000000000    0.2127380371093750    0.4848251342773438 Fe
   0.2526702880859375    0.7507019042968750    0.2371826171875000 Fe
   0.7473297119140625    0.2492980957031250    0.2371826171875000 Fe
   0.2526702880859375    0.2492980957031250    0.2371826171875000 Fe
   0.7473297119140625    0.7507019042968750    0.2371826171875000 Fe
   0.7526702880859375    0.2507019042968750    0.7371826171875000 Fe
   0.2473297119140625    0.7492980957031250    0.7371826171875000 Fe
   0.7526702880859375    0.7492980957031250    0.7371826171875000 Fe
   0.2473297119140625    0.2507019042968750    0.7371826171875000 Fe
