Ti3 Cr6 C9
1.0
   3.5523500366580087    0.0000000000000000   -0.0002322547940518
  -1.7759734890916758    3.0765417190390409   -0.0002322547940518
   0.0000000000000000    0.0000000000000000   20.5430507659912109
Ti C Cr
3 9 6
direct
   0.0000000000000000    0.0000000000000000    0.0000000000000000 Ti
   0.6666666865348816    0.3333333432674408    0.3333333432674408 Ti
   0.3333333432674408    0.6666666865348816    0.6666666865348816 Ti
   0.3333333432674408    0.6666666865348816    0.1666666716337204 C
   0.6666666865348816    0.3333333432674408    0.8333333134651184 C
   0.0000000000000000    0.0000000000000000    0.5000000000000000 C
   0.6666666865348816    0.3333333432674408    0.0584716796875000 C
   0.3333333432674408    0.6666666865348816    0.9415283203125000 C
   0.3333333730697632    0.6666666865348816    0.3918050229549408 C
   0.0000000000000000    0.0000000000000000    0.2748616635799408 C
   0.0000000000000000    0.0000000000000000    0.7251383662223816 C
   0.6666666865348816    0.3333333730697632    0.6081950068473816 C
   0.0000000000000000    0.0000000000000000    0.5791282653808594 Cr
   0.0000000000000000    0.0000000000000000    0.4208717346191406 Cr
   0.6666666865348816    0.3333333432674408    0.9124616384506226 Cr
   0.6666666865348816    0.3333333432674408    0.7542051076889038 Cr
   0.3333333432674408    0.6666666865348816    0.2457950115203857 Cr
   0.3333333432674408    0.6666666865348816    0.0875384211540222 Cr
