Nd4 Cd4 Ag8
1.0
   7.1810507620871586    0.0000000000000000   -0.0004695014423166
  -0.0004695321396085    7.1810507467370073   -0.0004695014423166
   0.0000000000000000    0.0000000000000000    7.1810507774353027
Nd Cd Ag
4 4 8
direct
   0.0000000000000000    0.0000000000000000    0.0000000000000000 Nd
   0.0000000000000000    0.5000000000000000    0.5000000000000000 Nd
   0.5000000000000000    0.0000000000000000    0.5000000000000000 Nd
   0.5000000000000000    0.5000000000000000    0.0000000000000000 Nd
   0.5000000000000000    0.0000000000000000    0.0000000000000000 Cd
   0.0000000000000000    0.5000000000000000    0.0000000000000000 Cd
   0.0000000000000000    0.0000000000000000    0.5000000000000000 Cd
   0.5000000000000000    0.5000000000000000    0.5000000000000000 Cd
   0.2500000000000000    0.2500000000000000    0.2500000000000000 Ag
   0.7500000000000000    0.7500000000000000    0.2500000000000000 Ag
   0.7500000000000000    0.2500000000000000    0.7500000000000000 Ag
   0.2500000000000000    0.7500000000000000    0.7500000000000000 Ag
   0.2500000000000000    0.2500000000000000    0.7500000000000000 Ag
   0.7500000000000000    0.7500000000000000    0.7500000000000000 Ag
   0.2500000000000000    0.7500000000000000    0.2500000000000000 Ag
   0.7500000000000000    0.2500000000000000    0.2500000000000000 Ag
