Li2 W6 O20
1.0
   5.1505496129539869    0.0000000000000000   -0.0016851019772002
  -0.0005656129983045    8.6482524502024933   -0.0005654279773385
   0.0000000000000000    0.0000000000000000    8.5958518981933594
Li W O
2 6 20
direct
   0.5000000000000000    0.5062408447265625    0.0000000000000000 Li
   0.0000000000000000    0.0062408447265625    0.0000000000000000 Li
   0.0000000000000000    0.5054092407226562    0.0000000000000000 W
   0.5000000000000000    0.0054092407226562    0.0000000000000000 W
   0.5000000000000000    0.2677459716796875    0.0000000000000000 W
   0.0000000000000000    0.7677459716796875    0.0000000000000000 W
   0.5000000000000000    0.7440795898437500    0.0000000000000000 W
   0.0000000000000000    0.2440795898437500    0.0000000000000000 W
   0.2556152343750000    0.3697509765625000    0.8796081542968750 O
   0.7443847656250000    0.3697509765625000    0.1203918457031250 O
   0.7556152343750000    0.8697509765625000    0.8796081542968750 O
   0.2443847656250000    0.8697509765625000    0.1203918457031250 O
   0.6758117675781250    0.1496582031250000    0.8543701171875000 O
   0.3241882324218750    0.1496582031250000    0.1456298828125000 O
   0.1758117675781250    0.6496582031250000    0.8543701171875000 O
   0.8241882324218750    0.6496582031250000    0.1456298828125000 O
   0.2995223999023438    0.5910644531250000    0.1366500854492188 O
   0.7004776000976562    0.5910644531250000    0.8633499145507812 O
   0.7995223999023438    0.0910644531250000    0.1366500854492188 O
   0.2004776000976562    0.0910644531250000    0.8633499145507812 O
   0.1278991699218750    0.5825805664062500    0.4984741210937500 O
   0.8721008300781250    0.5825805664062500    0.5015258789062500 O
   0.6278991699218750    0.0825805664062500    0.4984741210937500 O
   0.3721008300781250    0.0825805664062500    0.5015258789062500 O
   0.8049316406250000    0.3596954345703125    0.8340454101562500 O
   0.1950683593750000    0.3596954345703125    0.1659545898437500 O
   0.3049316406250000    0.8596954345703125    0.8340454101562500 O
   0.6950683593750000    0.8596954345703125    0.1659545898437500 O
