Ta4 Be16 Ga4
1.0
   6.2902512415911724    0.0000000000000000   -0.0004112604308624
  -0.0004112873201973    6.2902512281451868   -0.0004112604308624
   0.0000000000000000    0.0000000000000000    6.2902512550354004
Ta Ga Be
4 4 16
direct
   0.0000000000000000    0.0000000000000000    0.0000000000000000 Ta
   0.0000000000000000    0.5000000000000000    0.5000000000000000 Ta
   0.5000000000000000    0.0000000000000000    0.5000000000000000 Ta
   0.5000000000000000    0.5000000000000000    0.0000000000000000 Ta
   0.2500000000000000    0.2500000000000000    0.7500000000000000 Ga
   0.7500000000000000    0.7500000000000000    0.7500000000000000 Ga
   0.7500000000000000    0.2500000000000000    0.2500000000000000 Ga
   0.2500000000000000    0.7500000000000000    0.2500000000000000 Ga
   0.3750305175781250    0.1249694824218750    0.1249694824218750 Be
   0.6249694824218750    0.8750305175781250    0.1249694824218750 Be
   0.6249694824218750    0.1249694824218750    0.8750305175781250 Be
   0.3750305175781250    0.8750305175781250    0.8750305175781250 Be
   0.1249694824218750    0.3750305175781250    0.1249694824218750 Be
   0.1249694824218750    0.6249694824218750    0.8750305175781250 Be
   0.8750305175781250    0.6249694824218750    0.1249694824218750 Be
   0.8750305175781250    0.3750305175781250    0.8750305175781250 Be
   0.1249694824218750    0.1249694824218750    0.3750305175781250 Be
   0.8750305175781250    0.1249694824218750    0.6249694824218750 Be
   0.1249694824218750    0.8750305175781250    0.6249694824218750 Be
   0.8750305175781250    0.8750305175781250    0.3750305175781250 Be
   0.3750305175781250    0.6249694824218750    0.6249694824218750 Be
   0.6249694824218750    0.3750305175781250    0.6249694824218750 Be
   0.6249694824218750    0.6249694824218750    0.3750305175781250 Be
   0.3750305175781250    0.3750305175781250    0.3750305175781250 Be
