Ba4 Ni8 O20
1.0
   4.0632486256539497    0.0000000000000000   -0.0002656576528197
  -0.0002656750222456    4.0632486169683855   -0.0002656576528197
   0.0000000000000000    0.0000000000000000   25.7175502777099609
Ni O Ni Ba O
4 12 4 4 8
direct
   0.0000000000000000    0.0000000000000000    0.0000000000000000 Ni
   0.5000000000000000    0.5000000000000000    0.5000000000000000 Ni
   0.5000000000000000    0.5000000000000000    0.0000000000000000 Ni
   0.0000000000000000    0.0000000000000000    0.5000000000000000 Ni
   0.0000000000000000    0.5000000000000000    0.0000000000000000 O
   0.5000000000000000    0.0000000000000000    0.0000000000000000 O
   0.5000000000000000    0.0000000000000000    0.5000000000000000 O
   0.0000000000000000    0.5000000000000000    0.5000000000000000 O
   0.5000000000000000    0.5000000000000000    0.5601806640625000 O
   0.5000000000000000    0.5000000000000000    0.4398193359375000 O
   0.0000000000000000    0.0000000000000000    0.0601806640625000 O
   0.0000000000000000    0.0000000000000000    0.9398193359375000 O
   0.0000000000000000    0.0000000000000000    0.7984924316406250 O
   0.0000000000000000    0.0000000000000000    0.2015075683593750 O
   0.5000000000000000    0.5000000000000000    0.2984924316406250 O
   0.5000000000000000    0.5000000000000000    0.7015075683593750 O
   0.0000000000000000    0.0000000000000000    0.1266012191772461 Ni
   0.0000000000000000    0.0000000000000000    0.8733987808227539 Ni
   0.5000000000000000    0.5000000000000000    0.6266012191772461 Ni
   0.5000000000000000    0.5000000000000000    0.3733987808227539 Ni
   0.5000000000000000    0.5000000000000000    0.1890106201171875 Ba
   0.5000000000000000    0.5000000000000000    0.8109893798828125 Ba
   0.0000000000000000    0.0000000000000000    0.6890106201171875 Ba
   0.0000000000000000    0.0000000000000000    0.3109893798828125 Ba
   0.0000000000000000    0.5000000000000000    0.3772583007812500 O
   0.5000000000000000    0.0000000000000000    0.3772583007812500 O
   0.0000000000000000    0.5000000000000000    0.6227416992187500 O
   0.5000000000000000    0.0000000000000000    0.6227416992187500 O
   0.5000000000000000    0.0000000000000000    0.8772583007812500 O
   0.0000000000000000    0.5000000000000000    0.8772583007812500 O
   0.5000000000000000    0.0000000000000000    0.1227416992187500 O
   0.0000000000000000    0.5000000000000000    0.1227416992187500 O
