K2 Sn6
1.0
   7.6919498279202569    0.0000000000000000   -0.0005029043322604
  -3.8455385400762507    6.6616758771371254   -0.0005029043322604
   0.0000000000000000    0.0000000000000000    6.5129494667053223
K Sn
2 6
direct
   0.6666666865348816    0.3333333432674408    0.2500000000000000 K
   0.3333333134651184    0.6666666269302368    0.7500000000000000 K
   0.2324218750000000    0.1162109375000000    0.2500000000000000 Sn
   0.8837890625000000    0.1162109375000000    0.2500000000000000 Sn
   0.8837890625000000    0.7675781250000000    0.2500000000000000 Sn
   0.7675781250000000    0.8837890625000000    0.7500000000000000 Sn
   0.1162109375000000    0.8837890625000000    0.7500000000000000 Sn
   0.1162109375000000    0.2324218750000000    0.7500000000000000 Sn
