Sb2 F10
1.0
   4.8252593853490016    0.0000000000000000    0.8620082013177074
   1.7152029614766935    5.1182378309619638    0.3967587577245214
   0.0000000000000000    0.0000000000000000    6.3033494949340820
F Sb
10 2
direct
   0.7565307617187500    0.4056396484375000    0.9751968383789062 F
   0.2434692382812500    0.5943603515625000    0.0248031616210938 F
   0.0366821289062500    0.8652343750000000    0.3568725585937500 F
   0.9633178710937500    0.1347656250000000    0.6431274414062500 F
   0.5312500000000000    0.8393859863281250    0.6516723632812500 F
   0.4687500000000000    0.1606140136718750    0.3483276367187500 F
   0.2298889160156250    0.1044311523437500    0.9974517822265625 F
   0.7701110839843750    0.8955688476562500    0.0025482177734375 F
   0.2239990234375000    0.5195312500000000    0.6444244384765625 F
   0.7760009765625000    0.4804687500000000    0.3555755615234375 F
   0.8480224609375000    0.1653747558593750    0.2052040100097656 Sb
   0.1519775390625000    0.8346252441406250    0.7947959899902344 Sb
