Li10 Si4 H4
1.0
   3.7357492367054808    0.0000000000000000   -0.0002442455446808
  -0.0004977981224770    7.6133522661902298   -0.0004977655771984
   0.0000000000000000    0.0000000000000000    8.8840522766113281
Li H Li Si
6 4 4 4
direct
   0.0000000000000000    0.0000000000000000    0.4999389648437500 Li
   0.0000000000000000    0.5000000000000000    0.9999389648437500 Li
   0.0000000000000000    0.0000000000000000    0.0075073242187500 Li
   0.0000000000000000    0.5000000000000000    0.5075073242187500 Li
   0.5000000000000000    0.5000000000000000    0.2748107910156250 Li
   0.5000000000000000    0.0000000000000000    0.7748107910156250 Li
   0.7503805160522461    0.0000000000000000    0.2442817687988281 H
   0.2496194839477539    0.0000000000000000    0.2442817687988281 H
   0.7503805160522461    0.5000000000000000    0.7442817687988281 H
   0.2496194839477539    0.5000000000000000    0.7442817687988281 H
   0.0000000000000000    0.7399597167968750    0.7590332031250000 Li
   0.0000000000000000    0.2600402832031250    0.7590332031250000 Li
   0.0000000000000000    0.2399597167968750    0.2590332031250000 Li
   0.0000000000000000    0.7600402832031250    0.2590332031250000 Li
   0.5000000000000000    0.7474365234375000    0.5119628906250000 Si
   0.5000000000000000    0.2525634765625000    0.5119628906250000 Si
   0.5000000000000000    0.2474365234375000    0.0119628906250000 Si
   0.5000000000000000    0.7525634765625000    0.0119628906250000 Si
