Ta2 V6 Ru2
1.0
   5.3208503609421367    0.0000000000000000   -0.0003478804149390
  -2.6601233220100173    4.6081658471930522   -0.0003478804149390
   0.0000000000000000    0.0000000000000000    4.4693536758422852
Ru Ta V
2 2 6
direct
   0.0000000000000000    0.0000000000000000    0.0000000000000000 Ru
   0.0000000000000000    0.0000000000000000    0.5000000000000000 Ru
   0.6666666865348816    0.3333333432674408    0.2500000000000000 Ta
   0.3333333134651184    0.6666666269302368    0.7500000000000000 Ta
   0.8358459472656250    0.1641540527343750    0.2500000000000000 V
   0.8358459472656250    0.6716918945312500    0.2500000000000000 V
   0.3283081054687500    0.1641540527343750    0.2500000000000000 V
   0.1641540527343750    0.8358459472656250    0.7500000000000000 V
   0.1641540527343750    0.3283081054687500    0.7500000000000000 V
   0.6716918945312500    0.8358459472656250    0.7500000000000000 V
