Rb4 I8
1.0
   7.8012481628367070    0.0000000000000000   -2.4050085835930273
  -0.0008588244910363    9.6962508567691685   -0.0006339467483239
   0.0000000000000000    0.0000000000000000   10.7442483901977539
Rb I
4 8
direct
   0.7226562500000000    0.8989410400390625    0.3409423828125000 Rb
   0.2773437500000000    0.3989410400390625    0.1590576171875000 Rb
   0.2773437500000000    0.1010589599609375    0.6590576171875000 Rb
   0.7226562500000000    0.6010589599609375    0.8409423828125000 Rb
   0.4099121093750000    0.7624511718750000    0.5173034667968750 I
   0.5900878906250000    0.2624511718750000    0.9826965332031250 I
   0.5900878906250000    0.2375488281250000    0.4826965332031250 I
   0.4099121093750000    0.7375488281250000    0.0173034667968750 I
   0.9110794067382812    0.9626312255859375    0.7811889648437500 I
   0.0889205932617188    0.4626312255859375    0.7188110351562500 I
   0.0889205932617188    0.0373687744140625    0.2188110351562500 I
   0.9110794067382812    0.5373687744140625    0.2811889648437500 I
