Nb4 V4 Si4 Ge4
1.0
   5.5173482776974527    0.0000000000000000   -0.0003607275675892
  -0.0005200680886134    7.9539503711184834   -0.0005200340873585
   0.0000000000000000    0.0000000000000000    5.5959529876708984
V Ge Si Nb
4 4 4 4
direct
   0.7561492919921875    0.0000000000000000    0.0000000000000000 V
   0.2438507080078125    0.0000000000000000    0.5000000000000000 V
   0.2561492919921875    0.5000000000000000    0.0000000000000000 V
   0.7438507080078125    0.5000000000000000    0.5000000000000000 V
   0.7535705566406250    0.5000000000000000    0.0000000000000000 Ge
   0.2464294433593750    0.5000000000000000    0.5000000000000000 Ge
   0.2535705566406250    0.0000000000000000    0.0000000000000000 Ge
   0.7464294433593750    0.0000000000000000    0.5000000000000000 Ge
   0.0000000000000000    0.2531738281250000    0.2500000000000000 Si
   0.0000000000000000    0.7468261718750000    0.7500000000000000 Si
   0.5000000000000000    0.7531738281250000    0.2500000000000000 Si
   0.5000000000000000    0.2468261718750000    0.7500000000000000 Si
   0.0000000000000000    0.7548980712890625    0.2500000000000000 Nb
   0.0000000000000000    0.2451019287109375    0.7500000000000000 Nb
   0.5000000000000000    0.2548980712890625    0.2500000000000000 Nb
   0.5000000000000000    0.7451019287109375    0.7500000000000000 Nb
