Nd2 Ni20
1.0
   3.5916485709673260    0.0000000000000000   -0.0002348241559949
  -0.0007521909394212   11.5040502056430789   -0.0007521417623300
   0.0000000000000000    0.0000000000000000    5.2160530090332031
Nd Ni
2 20
direct
   0.0000000000000000    0.0000000000000000    0.0000000000000000 Nd
   0.5000000000000000    0.5000000000000000    0.5000000000000000 Nd
   0.0000000000000000    0.4274291992187500    0.0000000000000000 Ni
   0.0000000000000000    0.5725708007812500    0.0000000000000000 Ni
   0.5000000000000000    0.9274291992187500    0.5000000000000000 Ni
   0.5000000000000000    0.0725708007812500    0.5000000000000000 Ni
   0.0000000000000000    0.6370849609375000    0.5000000000000000 Ni
   0.0000000000000000    0.3629150390625000    0.5000000000000000 Ni
   0.5000000000000000    0.1370849609375000    0.0000000000000000 Ni
   0.5000000000000000    0.8629150390625000    0.0000000000000000 Ni
   0.0000000000000000    0.8582763671875000    0.5000000000000000 Ni
   0.0000000000000000    0.1417236328125000    0.5000000000000000 Ni
   0.5000000000000000    0.3582763671875000    0.0000000000000000 Ni
   0.5000000000000000    0.6417236328125000    0.0000000000000000 Ni
   0.2500000000000000    0.2500000000000000    0.2500000000000000 Ni
   0.7500000000000000    0.7500000000000000    0.2500000000000000 Ni
   0.7500000000000000    0.2500000000000000    0.7500000000000000 Ni
   0.2500000000000000    0.7500000000000000    0.7500000000000000 Ni
   0.7500000000000000    0.7500000000000000    0.7500000000000000 Ni
   0.2500000000000000    0.2500000000000000    0.7500000000000000 Ni
   0.2500000000000000    0.7500000000000000    0.2500000000000000 Ni
   0.7500000000000000    0.2500000000000000    0.2500000000000000 Ni
