Sm1 Y2 Ni13 B2
1.0
   5.1112508664560341    0.0000000000000000   -0.0003341766732123
  -2.5553354656070670    4.4266404956872512   -0.0003341766732123
   0.0000000000000000    0.0000000000000000   10.2988529205322266
Sm B Y Ni
1 2 2 13
direct
   0.0000000000000000    0.0000000000000000    0.0000000000000000 Sm
   0.6666666865348816    0.3333333432674408    0.0000000000000000 B
   0.3333333134651184    0.6666666269302368    0.0000000000000000 B
   0.0000000000000000    0.0000000000000000    0.6740722656250000 Y
   0.0000000000000000    0.0000000000000000    0.3259277343750000 Y
   0.5000000000000000    0.0000000000000000    0.5000000000000000 Ni
   0.0000000000000000    0.5000000000000000    0.5000000000000000 Ni
   0.5000000000000000    0.5000000000000000    0.5000000000000000 Ni
   0.6666666865348816    0.3333333432674408    0.3208007812500000 Ni
   0.3333333134651184    0.6666666269302368    0.3208007812500000 Ni
   0.3333333432674408    0.6666666865348816    0.6791992187500000 Ni
   0.6666666269302368    0.3333333134651184    0.6791992187500000 Ni
   0.5000000000000000    0.0000000000000000    0.1315917968750000 Ni
   0.0000000000000000    0.5000000000000000    0.1315917968750000 Ni
   0.5000000000000000    0.5000000000000000    0.1315917968750000 Ni
   0.0000000000000000    0.5000000000000000    0.8684082031250000 Ni
   0.5000000000000000    0.0000000000000000    0.8684082031250000 Ni
   0.5000000000000000    0.5000000000000000    0.8684082031250000 Ni
