Ho9 Zn3
1.0
   4.4562516117219388    0.0000000000000000   -0.0002913524257585
  -2.2278729971626747    3.8593730495363854   -0.0002913524257585
   0.0000000000000000    0.0000000000000000   23.1368522644042969
Zn Ho
3 9
direct
   0.6666666865348816    0.3333333432674408    0.8285598754882812 Zn
   0.3333333730697632    0.6666666865348816    0.1618932485580444 Zn
   0.0000000000000000    0.0000000000000000    0.4952266216278076 Zn
   0.3333333432674408    0.6666666865348816    0.6690979003906250 Ho
   0.0000000000000000    0.0000000000000000    0.0024312734603882 Ho
   0.6666666865348816    0.3333333730697632    0.3357646465301514 Ho
   0.0000000000000000    0.0000000000000000    0.2266845703125000 Ho
   0.6666666865348816    0.3333333432674408    0.5600179433822632 Ho
   0.3333333432674408    0.6666666865348816    0.8933512568473816 Ho
   0.6666666865348816    0.3333333432674408    0.1008605957031250 Ho
   0.3333333730697632    0.6666666865348816    0.4341939389705658 Ho
   0.0000000000000000    0.0000000000000000    0.7675272822380066 Ho
