Co2 Ni1 Sb4 Te2
1.0
   5.1039045998243617    0.0000000000000000   -0.5861419446614700
  -0.0002863867749050    3.9060501863835033   -0.0002553799244645
   0.0000000000000000    0.0000000000000000    9.9451484680175781
Ni Co Te Sb
1 2 2 4
direct
   0.0000000000000000    0.5000000000000000    0.5000000000000000 Ni
   0.4257812500000000    0.0000000000000000    0.1651000976562500 Co
   0.5742187500000000    0.0000000000000000    0.8348999023437500 Co
   0.2988281250000000    0.0000000000000000    0.6043395996093750 Te
   0.7011718750000000    0.0000000000000000    0.3956604003906250 Te
   0.2725219726562500    0.5000000000000000    0.9122924804687500 Sb
   0.7274780273437500    0.5000000000000000    0.0877075195312500 Sb
   0.2031860351562500    0.5000000000000000    0.2674560546875000 Sb
   0.7968139648437500    0.5000000000000000    0.7325439453125000 Sb
