Ca1 Al2 Ge2
1.0
   4.1942510515214178    0.0000000000000000   -0.0002742226706604
  -2.0968875806801694    3.6324653277323633   -0.0002742226706604
   0.0000000000000000    0.0000000000000000    7.0238480567932129
Ca Al Ge
1 2 2
direct
   0.0000000000000000    0.0000000000000000    0.0000000000000000 Ca
   0.6666666865348816    0.3333333432674408    0.3677978515625000 Al
   0.3333333432674408    0.6666666865348816    0.6322021484375000 Al
   0.6666666865348816    0.3333333432674408    0.7468032836914062 Ge
   0.3333333432674408    0.6666666865348816    0.2531967163085938 Ge
