Ce2 Ga10
1.0
   3.9191484367529523    0.0000000000000000   -0.0002562362953097
  -0.0002562530487414    3.9191484283754150   -0.0002562362953097
   0.0000000000000000    0.0000000000000000   13.4166469573974609
Ce Ga
2 10
direct
   0.0000000000000000    0.0000000000000000    0.0000000000000000 Ce
   0.5000000000000000    0.5000000000000000    0.5000000000000000 Ce
   0.5000000000000000    0.0000000000000000    0.2500000000000000 Ga
   0.0000000000000000    0.5000000000000000    0.7500000000000000 Ga
   0.0000000000000000    0.5000000000000000    0.3406372070312500 Ga
   0.5000000000000000    0.0000000000000000    0.6593627929687500 Ga
   0.5000000000000000    0.0000000000000000    0.8406372070312500 Ga
   0.0000000000000000    0.5000000000000000    0.1593627929687500 Ga
   0.5000000000000000    0.0000000000000000    0.0917358398437500 Ga
   0.0000000000000000    0.5000000000000000    0.9082641601562500 Ga
   0.0000000000000000    0.5000000000000000    0.5917358398437500 Ga
   0.5000000000000000    0.0000000000000000    0.4082641601562500 Ga
