Dy3 Sn1 C1
1.0
   5.1112508664560341    0.0000000000000000   -0.0003341766732123
  -0.0003341985225997    5.1112508555302689   -0.0003341766732123
   0.0000000000000000    0.0000000000000000    5.1112508773803711
Sn C Dy
1 1 3
direct
   0.0000000000000000    0.0000000000000000    0.0000000000000000 Sn
   0.5000000000000000    0.5000000000000000    0.5000000000000000 C
   0.5000000000000000    0.5000000000000000    0.0000000000000000 Dy
   0.0000000000000000    0.5000000000000000    0.5000000000000000 Dy
   0.5000000000000000    0.0000000000000000    0.5000000000000000 Dy
