Ga1 Bi1 Se2
1.0
   4.1287517459363121    0.0000000000000000   -0.0002699402864437
  -0.0002699579358799    4.1287517371107283   -0.0002699402864437
   0.0000000000000000    0.0000000000000000    5.8579502105712891
Ga Bi Se
1 1 2
direct
   0.0000000000000000    0.0000000000000000    0.0000000000000000 Ga
   0.5000000000000000    0.5000000000000000    0.0000000000000000 Bi
   0.5000000000000000    0.0000000000000000    0.3050765991210938 Se
   0.0000000000000000    0.5000000000000000    0.6949234008789062 Se
