Cr4 O12
1.0
   6.6177511073767983    0.0000000000000000   -0.0004326725701773
  -0.0003933000182716    6.0151524286620273   -0.0003932743049190
   0.0000000000000000    0.0000000000000000    5.1112508773803711
O Cr O
4 4 8
direct
   0.5000000000000000    0.5019531250000000    0.2934875488281250 O
   0.5000000000000000    0.4980468750000000    0.7934875488281250 O
   0.0000000000000000    0.0019531250000000    0.2934875488281250 O
   0.0000000000000000    0.9980468750000000    0.7934875488281250 O
   0.0000000000000000    0.8209838867187500    0.0418090820312500 Cr
   0.0000000000000000    0.1790161132812500    0.5418090820312500 Cr
   0.5000000000000000    0.3209838867187500    0.0418090820312500 Cr
   0.5000000000000000    0.6790161132812500    0.5418090820312500 Cr
   0.3153991699218750    0.8407115936279297    0.5428771972656250 O
   0.6846008300781250    0.1592884063720703    0.0428771972656250 O
   0.3153991699218750    0.1592884063720703    0.0428771972656250 O
   0.6846008300781250    0.8407115936279297    0.5428771972656250 O
   0.8153991699218750    0.3407115936279297    0.5428771972656250 O
   0.1846008300781250    0.6592884063720703    0.0428771972656250 O
   0.8153991699218750    0.6592884063720703    0.0428771972656250 O
   0.1846008300781250    0.3407115936279297    0.5428771972656250 O
