Li4 Ac8 Ir4
1.0
   7.4037484964439475    0.0000000000000000   -0.0004840615548886
  -0.0004840932041606    7.4037484806177600   -0.0004840615548886
   0.0000000000000000    0.0000000000000000    7.4037485122680664
Ir Li Ac
4 4 8
direct
   0.0000000000000000    0.0000000000000000    0.0000000000000000 Ir
   0.0000000000000000    0.5000000000000000    0.5000000000000000 Ir
   0.5000000000000000    0.0000000000000000    0.5000000000000000 Ir
   0.5000000000000000    0.5000000000000000    0.0000000000000000 Ir
   0.5000000000000000    0.0000000000000000    0.0000000000000000 Li
   0.0000000000000000    0.5000000000000000    0.0000000000000000 Li
   0.0000000000000000    0.0000000000000000    0.5000000000000000 Li
   0.5000000000000000    0.5000000000000000    0.5000000000000000 Li
   0.2500000000000000    0.2500000000000000    0.2500000000000000 Ac
   0.7500000000000000    0.7500000000000000    0.2500000000000000 Ac
   0.7500000000000000    0.2500000000000000    0.7500000000000000 Ac
   0.2500000000000000    0.7500000000000000    0.7500000000000000 Ac
   0.2500000000000000    0.2500000000000000    0.7500000000000000 Ac
   0.7500000000000000    0.7500000000000000    0.7500000000000000 Ac
   0.2500000000000000    0.7500000000000000    0.2500000000000000 Ac
   0.7500000000000000    0.2500000000000000    0.2500000000000000 Ac
