Eu1 In6 Ni2
1.0
   7.0238480417810596    0.0000000000000000   -0.0004592234333782
  -3.5115255492522159    6.0830608768103378   -0.0004592234333782
   0.0000000000000000    0.0000000000000000    4.0239500999450684
Eu Ni In
1 2 6
direct
   0.0000000000000000    0.0000000000000000    0.5000000000000000 Eu
   0.6666666865348816    0.3333333432674408    0.0000000000000000 Ni
   0.3333333432674408    0.6666666865348816    0.0000000000000000 Ni
   0.7209167480468750    0.0000000000000000    0.0000000000000000 In
   0.0000000000000000    0.7209167480468750    0.0000000000000000 In
   0.2790832519531250    0.2790832519531250    0.0000000000000000 In
   0.5631103515625000    0.5631103515625000    0.5000000000000000 In
   0.4368896484375000    0.0000000000000000    0.5000000000000000 In
   0.0000000000000000    0.4368896484375000    0.5000000000000000 In
