Hf2 Si2 Os1
1.0
   2.8580517707774384    0.0000000000000000   -0.0001868611534791
  -0.0001868733709738    2.8580517646680921   -0.0001868611534791
   0.0000000000000000    0.0000000000000000    7.9408521652221680
Os Hf Si
1 2 2
direct
   0.5000000000000000    0.5000000000000000    0.0000000000000000 Os
   0.0000000000000000    0.0000000000000000    0.1917724609375000 Hf
   0.0000000000000000    0.0000000000000000    0.8082275390625000 Hf
   0.5000000000000000    0.5000000000000000    0.6403427124023438 Si
   0.5000000000000000    0.5000000000000000    0.3596572875976562 Si
