Li1 Sn3
1.0
   4.1811528116507315    0.0000000000000000   -0.0002733662998151
  -0.0002733841732535    4.1811528027131359   -0.0002733662998151
   0.0000000000000000    0.0000000000000000    4.1811528205871582
Li Sn
1 3
direct
   0.0000000000000000    0.0000000000000000    0.0000000000000000 Li
   0.5000000000000000    0.5000000000000000    0.0000000000000000 Sn
   0.0000000000000000    0.5000000000000000    0.5000000000000000 Sn
   0.5000000000000000    0.0000000000000000    0.5000000000000000 Sn
