Nd8 Ni16 Sn4
1.0
   9.6569480689597000    0.0000000000000000   -0.0006313771057977
  -0.0006314183869644    9.6569480483170924   -0.0006313771057977
   0.0000000000000000    0.0000000000000000    5.2029504776000977
Sn Nd Ni
4 8 16
direct
   0.0000000000000000    0.0000000000000000    0.2500000000000000 Sn
   0.0000000000000000    0.0000000000000000    0.7500000000000000 Sn
   0.5000000000000000    0.5000000000000000    0.7500000000000000 Sn
   0.5000000000000000    0.5000000000000000    0.2500000000000000 Sn
   0.1411895751953125    0.3588104248046875    0.0000000000000000 Nd
   0.8588104248046875    0.6411895751953125    0.0000000000000000 Nd
   0.6411895751953125    0.1411895751953125    0.0000000000000000 Nd
   0.3588104248046875    0.8588104248046875    0.0000000000000000 Nd
   0.8588104248046875    0.3588104248046875    0.5000000000000000 Nd
   0.1411895751953125    0.6411895751953125    0.5000000000000000 Nd
   0.3588104248046875    0.1411895751953125    0.5000000000000000 Nd
   0.6411895751953125    0.8588104248046875    0.5000000000000000 Nd
   0.5964965820312500    0.7221908569335938    0.0000000000000000 Ni
   0.4035034179687500    0.2778091430664062    0.0000000000000000 Ni
   0.2778091430664062    0.5964965820312500    0.0000000000000000 Ni
   0.7221908569335938    0.4035034179687500    0.0000000000000000 Ni
   0.4035034179687500    0.7221908569335938    0.5000000000000000 Ni
   0.5964965820312500    0.2778091430664062    0.5000000000000000 Ni
   0.7221908569335938    0.5964965820312500    0.5000000000000000 Ni
   0.2778091430664062    0.4035034179687500    0.5000000000000000 Ni
   0.0964965820312500    0.2221908569335938    0.5000000000000000 Ni
   0.9035034179687500    0.7778091430664062    0.5000000000000000 Ni
   0.7778091430664062    0.0964965820312500    0.5000000000000000 Ni
   0.2221908569335938    0.9035034179687500    0.5000000000000000 Ni
   0.9035034179687500    0.2221908569335938    0.0000000000000000 Ni
   0.0964965820312500    0.7778091430664062    0.0000000000000000 Ni
   0.2221908569335938    0.0964965820312500    0.0000000000000000 Ni
   0.7778091430664062    0.9035034179687500    0.0000000000000000 Ni
