Li5 V3 O12
1.0
   5.0456086511719214    0.0000000000000000   -0.0379771257565042
  -0.0249835735836201    5.3431006202377409   -0.2039792044170754
   0.0000000000000000    0.0000000000000000    6.8797478675842285
Li O V
5 12 3
direct
   0.4284667968750000    0.8613281250000000    0.3585205078125000 Li
   0.9291381835937500    0.9223632812500000    0.6162109375000000 Li
   0.9285888671875000    0.4531250000000000    0.8753662109375000 Li
   0.4228515625000000    0.4206542968750000    0.1079101562500000 Li
   0.9276733398437500    0.4687500000000000    0.4072265625000000 Li
   0.2666015625000000    0.2014236450195312    0.8222579956054688 O
   0.5625000000000000    0.0563812255859375    0.1126708984375000 O
   0.1174316406250000    0.5595092773437500    0.6383666992187500 O
   0.2272949218750000    0.7516479492187500    0.1012420654296875 O
   0.5566406250000000    0.5834503173828125    0.8878173828125000 O
   0.8381347656250000    0.8243103027343750    0.3422851562500000 O
   0.7177734375000000    0.2526855468750000    0.6402740478515625 O
   0.9709472656250000    0.3224487304687500    0.1373291015625000 O
   0.9274902343750000    0.9076461791992188    0.9129638671875000 O
   0.1833496093750000    0.1376953125000000    0.4224853515625000 O
   0.4494628906250000    0.8601074218750000    0.6416015625000000 O
   0.5107421875000000    0.4835357666015625    0.4013671875000000 O
   0.4152526855468750    0.3547363281250000    0.6118164062500000 V
   0.9356689453125000    0.0158691406250000    0.1639404296875000 V
   0.3985595703125000    0.8920898437500000    0.8840942382812500 V
