Eu2 Ni4 Sn12 Sb2
1.0
   4.6527528663373552    0.0000000000000000   -0.0003041997966399
  -0.0008070094902809   12.3424481817953371   -0.0008069567292368
   0.0000000000000000    0.0000000000000000    7.6002502441406250
Sb Eu Ni Sn
2 2 4 12
direct
   0.5000000000000000    0.0000000000000000    0.1758413314819336 Sb
   0.0000000000000000    0.5000000000000000    0.6758413314819336 Sb
   0.5000000000000000    0.0000000000000000    0.7117004394531250 Eu
   0.0000000000000000    0.5000000000000000    0.2117004394531250 Eu
   0.5000000000000000    0.1820068359375000    0.9293823242187500 Ni
   0.5000000000000000    0.8179931640625000    0.9293823242187500 Ni
   0.0000000000000000    0.6820068359375000    0.4293823242187500 Ni
   0.0000000000000000    0.3179931640625000    0.4293823242187500 Ni
   0.0000000000000000    0.1187744140625000    0.0427246093750000 Sn
   0.0000000000000000    0.8812255859375000    0.0427246093750000 Sn
   0.5000000000000000    0.6187744140625000    0.5427246093750000 Sn
   0.5000000000000000    0.3812255859375000    0.5427246093750000 Sn
   0.0000000000000000    0.7451782226562500    0.7493896484375000 Sn
   0.0000000000000000    0.2548217773437500    0.7493896484375000 Sn
   0.5000000000000000    0.2451782226562500    0.2493896484375000 Sn
   0.5000000000000000    0.7548217773437500    0.2493896484375000 Sn
   0.5000000000000000    0.3904876708984375    0.9473419189453125 Sn
   0.5000000000000000    0.6095123291015625    0.9473419189453125 Sn
   0.0000000000000000    0.8904876708984375    0.4473419189453125 Sn
   0.0000000000000000    0.1095123291015625    0.4473419189453125 Sn
