Li8 Si4 O12
1.0
   5.1260543492672248    0.0000000000000000   -1.9319913828471276
  -0.0009807921175017   10.3774499207907578   -0.0006784839556995
   0.0000000000000000    0.0000000000000000    5.8579502105712891
Li O Si O
8 4 4 8
direct
   0.2500000000000000    0.2500000000000000    0.0000000000000000 Li
   0.7500000000000000    0.2500000000000000    0.5000000000000000 Li
   0.7500000000000000    0.7500000000000000    0.0000000000000000 Li
   0.2500000000000000    0.7500000000000000    0.5000000000000000 Li
   0.0000000000000000    0.0588989257812500    0.2500000000000000 Li
   0.0000000000000000    0.9411010742187500    0.7500000000000000 Li
   0.5000000000000000    0.5588989257812500    0.2500000000000000 Li
   0.5000000000000000    0.4411010742187500    0.7500000000000000 Li
   0.0000000000000000    0.2957916259765625    0.2500000000000000 O
   0.0000000000000000    0.7042083740234375    0.7500000000000000 O
   0.5000000000000000    0.7957916259765625    0.2500000000000000 O
   0.5000000000000000    0.2042083740234375    0.7500000000000000 O
   0.5000000000000000    0.9445953369140625    0.2500000000000000 Si
   0.5000000000000000    0.0554046630859375    0.7500000000000000 Si
   0.0000000000000000    0.4445953369140625    0.2500000000000000 Si
   0.0000000000000000    0.5554046630859375    0.7500000000000000 Si
   0.2554321289062500    0.0201110839843750    0.0745849609375000 O
   0.7445678710937500    0.0201110839843750    0.4254150390625000 O
   0.7445678710937500    0.9798889160156250    0.9254150390625000 O
   0.2554321289062500    0.9798889160156250    0.5745849609375000 O
   0.7554321289062500    0.5201110839843750    0.0745849609375000 O
   0.2445678710937500    0.5201110839843750    0.4254150390625000 O
   0.2445678710937500    0.4798889160156250    0.9254150390625000 O
   0.7554321289062500    0.4798889160156250    0.5745849609375000 O
