Rb4 S4 O16
1.0
   5.7924508924659177    0.0000000000000000   -0.0003787139429398
  -0.0003787387042960    5.7924508800840258   -0.0003787139429398
   0.0000000000000000    0.0000000000000000    9.0805530548095703
S Rb O
4 4 16
direct
   0.0000000000000000    0.7500000000000000    0.1250000000000000 S
   0.5000000000000000    0.2500000000000000    0.6250000000000000 S
   0.5000000000000000    0.7500000000000000    0.3750000000000000 S
   0.0000000000000000    0.2500000000000000    0.8750000000000000 S
   0.5000000000000000    0.2500000000000000    0.1250000000000000 Rb
   0.0000000000000000    0.7500000000000000    0.6250000000000000 Rb
   0.0000000000000000    0.2500000000000000    0.3750000000000000 Rb
   0.5000000000000000    0.7500000000000000    0.8750000000000000 Rb
   0.1038665771484375    0.0000000000000000    0.0000000000000000 O
   0.3961334228515625    0.0000000000000000    0.5000000000000000 O
   0.2500000000000000    0.8538665771484375    0.2500000000000000 O
   0.2500000000000000    0.1461334228515625    0.7500000000000000 O
   0.8961334228515625    0.0000000000000000    0.0000000000000000 O
   0.6038665771484375    0.0000000000000000    0.5000000000000000 O
   0.7500000000000000    0.1461334228515625    0.7500000000000000 O
   0.7500000000000000    0.8538665771484375    0.2500000000000000 O
   0.6038665771484375    0.5000000000000000    0.5000000000000000 O
   0.8961334228515625    0.5000000000000000    0.0000000000000000 O
   0.7500000000000000    0.3538665771484375    0.7500000000000000 O
   0.7500000000000000    0.6461334228515625    0.2500000000000000 O
   0.3961334228515625    0.5000000000000000    0.5000000000000000 O
   0.1038665771484375    0.5000000000000000    0.0000000000000000 O
   0.2500000000000000    0.6461334228515625    0.2500000000000000 O
   0.2500000000000000    0.3538665771484375    0.7500000000000000 O
