La4 Sm4 S12
1.0
  16.6130542400054182    0.0000000000000000   -0.0010861715346932
  -0.0002562530487414    3.9191484283754150   -0.0002562362953097
   0.0000000000000000    0.0000000000000000    6.8404488563537598
S La Sm
12 4 4
direct
   0.0988769531250000    0.2500000000000000    0.3678436279296875 S
   0.4011230468750000    0.7500000000000000    0.8678436279296875 S
   0.9011230468750000    0.7500000000000000    0.6321563720703125 S
   0.5988769531250000    0.2500000000000000    0.1321563720703125 S
   0.2250976562500000    0.2500000000000000    0.8726196289062500 S
   0.2749023437500000    0.7500000000000000    0.3726196289062500 S
   0.7749023437500000    0.7500000000000000    0.1273803710937500 S
   0.7250976562500000    0.2500000000000000    0.6273803710937500 S
   0.0588073730468750    0.2500000000000000    0.8601884841918945 S
   0.4411926269531250    0.7500000000000000    0.3601884841918945 S
   0.9411926269531250    0.7500000000000000    0.1398115158081055 S
   0.5588073730468750    0.2500000000000000    0.6398115158081055 S
   0.3662261962890625    0.2500000000000000    0.1233520507812500 La
   0.1337738037109375    0.7500000000000000    0.6233520507812500 La
   0.6337738037109375    0.7500000000000000    0.8766479492187500 La
   0.8662261962890625    0.2500000000000000    0.3766479492187500 La
   0.3717117309570312    0.2500000000000000    0.6063079833984375 Sm
   0.1282882690429688    0.7500000000000000    0.1063079833984375 Sm
   0.6282882690429688    0.7500000000000000    0.3936920166015625 Sm
   0.8717117309570312    0.2500000000000000    0.8936920166015625 Sm
