Hf6 Ti3 C12
1.0
   3.2641489436002784    0.0000000000000000   -0.0002134120322680
  -1.6318892925693929    2.8269428120859081   -0.0002134120322680
   0.0000000000000000    0.0000000000000000   28.4030513763427734
C Ti Hf
12 3 6
direct
   0.0000000000000000    0.0000000000000000    0.7330245971679688 C
   0.6666666865348816    0.3333333432674408    0.0663579702377319 C
   0.3333333432674408    0.6666666865348816    0.3996913433074951 C
   0.6666666865348816    0.3333333432674408    0.3152770996093750 C
   0.3333333730697632    0.6666666865348816    0.6486104726791382 C
   0.0000000000000000    0.0000000000000000    0.9819437861442566 C
   0.3333333432674408    0.6666666865348816    0.5472717285156250 C
   0.0000000000000000    0.0000000000000000    0.8806051015853882 C
   0.6666666865348816    0.3333333730697632    0.2139384746551514 C
   0.3333333432674408    0.6666666865348816    0.1371459960937500 C
   0.0000000000000000    0.0000000000000000    0.4704793393611908 C
   0.6666666865348816    0.3333333730697632    0.8038126826286316 C
   0.0000000000000000    0.0000000000000000    0.1650390625000000 Ti
   0.6666666865348816    0.3333333432674408    0.4983724057674408 Ti
   0.3333333432674408    0.6666666865348816    0.8317057490348816 Ti
   0.3333333432674408    0.6666666865348816    0.2612915039062500 Hf
   0.0000000000000000    0.0000000000000000    0.5946248769760132 Hf
   0.6666666865348816    0.3333333730697632    0.9279581904411316 Hf
   0.3333333432674408    0.6666666865348816    0.0322875976562500 Hf
   0.0000000000000000    0.0000000000000000    0.3656209409236908 Hf
   0.6666666865348816    0.3333333730697632    0.6989542841911316 Hf
