Zr4 Ti1 Pb2
1.0
   3.8143505968585298    0.0000000000000000   -0.0002493845491500
  -0.0002494008545957    3.8143505887050075   -0.0002493845491500
   0.0000000000000000    0.0000000000000000   11.8315496444702148
Pb Ti Pb Zr
1 1 1 4
direct
   0.0000000000000000    0.0000000000000000    0.0000000000000000 Pb
   0.5000000000000000    0.5000000000000000    0.0000000000000000 Ti
   0.5000000000000000    0.5000000000000000    0.5000000000000000 Pb
   0.0000000000000000    0.0000000000000000    0.6511840820312500 Zr
   0.0000000000000000    0.0000000000000000    0.3488159179687500 Zr
   0.5000000000000000    0.5000000000000000    0.7698364257812500 Zr
   0.5000000000000000    0.5000000000000000    0.2301635742187500 Zr
