Bi4 Br2 F12
1.0
   7.7961554229962653    0.0000000000000000    2.2854804468515240
   3.8534621368033868    7.7193532476586109    2.6141074026183380
   0.0000000000000000    0.0000000000000000    9.5390510559082031
F Br Bi
12 2 4
direct
   0.5104675292968750    0.8074951171875000    0.7357025146484375 F
   0.4895324707031250    0.1925048828125000    0.2642974853515625 F
   0.8868408203125000    0.4381408691406250    0.4819946289062500 F
   0.1131591796875000    0.5618591308593750    0.5180053710937500 F
   0.1298828125000000    0.0457763671875000    0.8237304687500000 F
   0.8701171875000000    0.9542236328125000    0.1762695312500000 F
   0.9162597656250000    0.6719970703125000    0.8456420898437500 F
   0.0837402343750000    0.3280029296875000    0.1543579101562500 F
   0.2334747314453125    0.6037597656250000    0.0587158203125000 F
   0.7665252685546875    0.3962402343750000    0.9412841796875000 F
   0.3790740966796875    0.5040359497070312    0.7800445556640625 F
   0.6209259033203125    0.4959640502929688    0.2199554443359375 F
   0.7408447265625000    0.1398010253906250    0.6453247070312500 Br
   0.2591552734375000    0.8601989746093750    0.3546752929687500 Br
   0.1827011108398438    0.7684135437011719    0.8382568359375000 Bi
   0.8172988891601562    0.2315864562988281    0.1617431640625000 Bi
   0.8213653564453125    0.7510590553283691    0.6116943359375000 Bi
   0.1786346435546875    0.2489409446716309    0.3883056640625000 Bi
