Ca2 Mg2 Ti4 Zn4 Pb4 O16
1.0
   7.0238480417810596    0.0000000000000000   -0.0004592234333782
  -0.0004669626096735    7.1417522125116948   -0.0004669320803736
   0.0000000000000000    0.0000000000000000    5.7138495445251465
Mg Ca Zn O Ti Pb O
2 2 4 4 4 4 12
direct
   0.0000000000000000    0.0000000000000000    0.0000000000000000 Mg
   0.5000000000000000    0.5000000000000000    0.0000000000000000 Mg
   0.0000000000000000    0.5000000000000000    0.0000000000000000 Ca
   0.5000000000000000    0.0000000000000000    0.0000000000000000 Ca
   0.2500000000000000    0.2500000000000000    0.5000000000000000 Zn
   0.7500000000000000    0.7500000000000000    0.5000000000000000 Zn
   0.7500000000000000    0.2500000000000000    0.5000000000000000 Zn
   0.2500000000000000    0.7500000000000000    0.5000000000000000 Zn
   0.6673431396484375    0.5000000000000000    0.5000000000000000 O
   0.3326568603515625    0.5000000000000000    0.5000000000000000 O
   0.1673431396484375    0.0000000000000000    0.5000000000000000 O
   0.8326568603515625    0.0000000000000000    0.5000000000000000 O
   0.0815429687500000    0.0000000000000000    0.5000000000000000 Ti
   0.9184570312500000    0.0000000000000000    0.5000000000000000 Ti
   0.5815429687500000    0.5000000000000000    0.5000000000000000 Ti
   0.4184570312500000    0.5000000000000000    0.5000000000000000 Ti
   0.4501342773437500    0.0000000000000000    0.5000000000000000 Pb
   0.5498657226562500    0.0000000000000000    0.5000000000000000 Pb
   0.9501342773437500    0.5000000000000000    0.5000000000000000 Pb
   0.0498657226562500    0.5000000000000000    0.5000000000000000 Pb
   0.0000000000000000    0.7997817993164062    0.0000000000000000 O
   0.0000000000000000    0.2002182006835938    0.0000000000000000 O
   0.5000000000000000    0.2997817993164062    0.0000000000000000 O
   0.5000000000000000    0.7002182006835938    0.0000000000000000 O
   0.7233886718750000    0.3250122070312500    0.0000000000000000 O
   0.2766113281250000    0.6749877929687500    0.0000000000000000 O
   0.2766113281250000    0.3250122070312500    0.0000000000000000 O
   0.7233886718750000    0.6749877929687500    0.0000000000000000 O
   0.2233886718750000    0.8250122070312500    0.0000000000000000 O
   0.7766113281250000    0.1749877929687500    0.0000000000000000 O
   0.7766113281250000    0.8250122070312500    0.0000000000000000 O
   0.2233886718750000    0.1749877929687500    0.0000000000000000 O
