Li2 V2 Co4 O4 F12
1.0
   9.6700496466904866    0.0000000000000000   -0.0006322336948743
  -0.0003633209323053    5.5566506148261805   -0.0003632971789394
   0.0000000000000000    0.0000000000000000    5.2815480232238770
Li V O F Co F
2 2 4 4 4 8
direct
   0.0000000000000000    0.5000000000000000    0.0000000000000000 Li
   0.5000000000000000    0.0000000000000000    0.0000000000000000 Li
   0.0000000000000000    0.0000000000000000    0.5000000000000000 V
   0.5000000000000000    0.5000000000000000    0.5000000000000000 V
   0.1647949218750000    0.5000000000000000    0.0000000000000000 O
   0.8352050781250000    0.5000000000000000    0.0000000000000000 O
   0.6647949218750000    0.0000000000000000    0.0000000000000000 O
   0.3352050781250000    0.0000000000000000    0.0000000000000000 O
   0.0000000000000000    0.2977733612060547    0.5000000000000000 F
   0.0000000000000000    0.7022266387939453    0.5000000000000000 F
   0.5000000000000000    0.7977733612060547    0.5000000000000000 F
   0.5000000000000000    0.2022266387939453    0.5000000000000000 F
   0.0000000000000000    0.0000000000000000    0.8395996093750000 Co
   0.0000000000000000    0.0000000000000000    0.1604003906250000 Co
   0.5000000000000000    0.5000000000000000    0.8395996093750000 Co
   0.5000000000000000    0.5000000000000000    0.1604003906250000 Co
   0.8415069580078125    0.0000000000000000    0.7276611328125000 F
   0.1584930419921875    0.0000000000000000    0.7276611328125000 F
   0.1584930419921875    0.0000000000000000    0.2723388671875000 F
   0.8415069580078125    0.0000000000000000    0.2723388671875000 F
   0.3415069580078125    0.5000000000000000    0.7276611328125000 F
   0.6584930419921875    0.5000000000000000    0.7276611328125000 F
   0.6584930419921875    0.5000000000000000    0.2723388671875000 F
   0.3415069580078125    0.5000000000000000    0.2723388671875000 F
