Ge4 H4 N16
1.0
   8.3600511372222961    0.0000000000000000   -0.0005465851999667
  -0.0005800260423004    8.8709506609300863   -0.0005799881210864
   0.0000000000000000    0.0000000000000000    4.8361520767211914
N H N Ge N
4 4 4 4 8
direct
   0.0000000000000000    0.0000000000000000    0.4599151611328125 N
   0.5000000000000000    0.0000000000000000    0.4599151611328125 N
   0.0000000000000000    0.5000000000000000    0.9599151611328125 N
   0.5000000000000000    0.5000000000000000    0.9599151611328125 N
   0.2500000000000000    0.3926391601562500    0.3670043945312500 H
   0.7500000000000000    0.6073608398437500    0.3670043945312500 H
   0.2500000000000000    0.8926391601562500    0.8670043945312500 H
   0.7500000000000000    0.1073608398437500    0.8670043945312500 H
   0.2500000000000000    0.9874877929687500    0.0014781951904297 N
   0.7500000000000000    0.0125122070312500    0.0014781951904297 N
   0.2500000000000000    0.4874877929687500    0.5014781951904297 N
   0.7500000000000000    0.5125122070312500    0.5014781951904297 N
   0.2500000000000000    0.4799804687500000    0.8755798339843750 Ge
   0.7500000000000000    0.5200195312500000    0.8755798339843750 Ge
   0.2500000000000000    0.9799804687500000    0.3755798339843750 Ge
   0.7500000000000000    0.0200195312500000    0.3755798339843750 Ge
   0.9564208984375000    0.6389923095703125    0.9481811523437500 N
   0.0435791015625000    0.3610076904296875    0.9481811523437500 N
   0.4564208984375000    0.3610076904296875    0.9481811523437500 N
   0.5435791015625000    0.6389923095703125    0.9481811523437500 N
   0.9564208984375000    0.1389923095703125    0.4481811523437500 N
   0.0435791015625000    0.8610076904296875    0.4481811523437500 N
   0.4564208984375000    0.8610076904296875    0.4481811523437500 N
   0.5435791015625000    0.1389923095703125    0.4481811523437500 N
