La1 Sm1 U1 Fe4 As4
1.0
   4.0632486256539497    0.0000000000000000   -0.0002656576528197
  -0.0002656750222456    4.0632486169683855   -0.0002656576528197
   0.0000000000000000    0.0000000000000000   14.5039482116699219
As U As La Sm Fe
2 1 2 1 1 4
direct
   0.0000000000000000    0.0000000000000000    0.1039428710937500 As
   0.0000000000000000    0.0000000000000000    0.5844726562500000 As
   0.0000000000000000    0.0000000000000000    0.8520507812500000 U
   0.5000000000000000    0.5000000000000000    0.7973327636718750 As
   0.5000000000000000    0.5000000000000000    0.2915039062500000 As
   0.5000000000000000    0.5000000000000000    0.0263061523437500 La
   0.5000000000000000    0.5000000000000000    0.5074462890625000 Sm
   0.0000000000000000    0.5000000000000000    0.2026367187500000 Fe
   0.5000000000000000    0.0000000000000000    0.2026367187500000 Fe
   0.0000000000000000    0.5000000000000000    0.6939697265625000 Fe
   0.5000000000000000    0.0000000000000000    0.6939697265625000 Fe
