Ni6 Bi12 O18
1.0
   6.0282506813906513    0.0000000000000000   -0.0003941306757643
  -3.0137833505339655    5.2208156636421403   -0.0003941306757643
   0.0000000000000000    0.0000000000000000   16.7964534759521484
Ni Bi O
6 12 18
direct
   0.0000000000000000    0.0000000000000000    0.0000000000000000 Ni
   0.0000000000000000    0.0000000000000000    0.5000000000000000 Ni
   0.6666666865348816    0.3333333432674408    0.3333333432674408 Ni
   0.6666666865348816    0.3333333432674408    0.8333333134651184 Ni
   0.3333333432674408    0.6666666865348816    0.6666666865348816 Ni
   0.3333333432674408    0.6666666865348816    0.1666666269302368 Ni
   0.6666666865348816    0.3333333432674408    0.1667022705078125 Bi
   0.3333333432674408    0.6666666865348816    0.3332977294921875 Bi
   0.3333333134651184    0.6666666269302368    0.8332977294921875 Bi
   0.6666666269302368    0.3333333134651184    0.6667022705078125 Bi
   0.3333333730697632    0.6666666865348816    0.5000356435775757 Bi
   0.0000000000000000    0.0000000000000000    0.6666310429573059 Bi
   0.0000000000000000    0.0000000000000000    0.1666310727596283 Bi
   0.3333333432674408    0.6666666269302368    0.0000355243682861 Bi
   0.0000000000000000    0.0000000000000000    0.8333689570426941 Bi
   0.6666666865348816    0.3333333730697632    0.9999643564224243 Bi
   0.6666666269302368    0.3333333432674408    0.4999644160270691 Bi
   0.0000000000000000    0.0000000000000000    0.3333688974380493 Bi
   0.0458984375000000    0.7125854492187500    0.0833333358168602 O
   0.2874145507812500    0.3333129882812500    0.0833333358168602 O
   0.6666870117187500    0.9541015625000000    0.0833333358168602 O
   0.7125854492187500    0.0458984375000000    0.4166666567325592 O
   0.3333129882812500    0.2874145507812500    0.4166666567325592 O
   0.9541015625000000    0.6666870117187500    0.4166666567325592 O
   0.9541015625000000    0.2874145507812500    0.9166666865348816 O
   0.7125854492187500    0.6666870117187500    0.9166666865348816 O
   0.3333129882812500    0.0458984375000000    0.9166666865348816 O
   0.2874145507812500    0.9541015625000000    0.5833333134651184 O
   0.6666870117187500    0.7125854492187500    0.5833333134651184 O
   0.0458984375000000    0.3333129882812500    0.5833333134651184 O
   0.3792521953582764    0.3792317807674408    0.7500000000000000 O
   0.9999796748161316    0.6207479238510132    0.7500000000000000 O
   0.6207682490348816    0.0000203847885132    0.7500000000000000 O
   0.6207682490348816    0.6207479238510132    0.2500000000000000 O
   0.3792521953582764    0.0000203847885132    0.2500000000000000 O
   0.9999796748161316    0.3792317807674408    0.2500000000000000 O
