Y2 Si4
1.0
   6.6439475871181717    0.0000000000000000   -0.0004343853118678
  -0.0004344137131708    6.6439475729161277   -0.0004343853118678
   0.0000000000000000    0.0000000000000000    3.2772512435913086
Y Si
2 4
direct
   0.5000000000000000    0.5000000000000000    0.0000000000000000 Y
   0.0000000000000000    0.0000000000000000    0.5000000000000000 Y
   0.7213897705078125    0.7213897705078125    0.5000000000000000 Si
   0.2786102294921875    0.2786102294921875    0.5000000000000000 Si
   0.7786102294921875    0.2213897705078125    0.0000000000000000 Si
   0.2213897705078125    0.7786102294921875    0.0000000000000000 Si
