Sr4 Mn4 Bi2 Pb2 O12
1.0
   9.4762233634112558    0.0000000000000000   -3.6496840686634129
  -0.0004918008759105    5.1636519087501966   -0.0003376026865837
   0.0000000000000000    0.0000000000000000    7.2334518432617188
Pb Bi O Mn Sr O
2 2 4 4 4 8
direct
   0.5000000000000000    0.0000000000000000    0.0000000000000000 Pb
   0.0000000000000000    0.5000000000000000    0.0000000000000000 Pb
   0.5000000000000000    0.0000000000000000    0.5000000000000000 Bi
   0.0000000000000000    0.5000000000000000    0.5000000000000000 Bi
   0.3180084228515625    0.0000000000000000    0.6784210205078125 O
   0.6819915771484375    0.0000000000000000    0.3215789794921875 O
   0.8180084228515625    0.5000000000000000    0.6784210205078125 O
   0.1819915771484375    0.5000000000000000    0.3215789794921875 O
   0.2384948730468750    0.0000000000000000    0.9093627929687500 Mn
   0.7615051269531250    0.0000000000000000    0.0906372070312500 Mn
   0.7384948730468750    0.5000000000000000    0.9093627929687500 Mn
   0.2615051269531250    0.5000000000000000    0.0906372070312500 Mn
   0.1614074707031250    0.0000000000000000    0.3010864257812500 Sr
   0.8385925292968750    0.0000000000000000    0.6989135742187500 Sr
   0.6614074707031250    0.5000000000000000    0.3010864257812500 Sr
   0.3385925292968750    0.5000000000000000    0.6989135742187500 Sr
   0.0947265625000000    0.2600584030151367    0.8203735351562500 O
   0.9052734375000000    0.2600584030151367    0.1796264648437500 O
   0.9052734375000000    0.7399415969848633    0.1796264648437500 O
   0.0947265625000000    0.7399415969848633    0.8203735351562500 O
   0.5947265625000000    0.7600584030151367    0.8203735351562500 O
   0.4052734375000000    0.7600584030151367    0.1796264648437500 O
   0.4052734375000000    0.2399415969848633    0.1796264648437500 O
   0.5947265625000000    0.2399415969848633    0.8203735351562500 O
