Nd3 Sn3 Ir3
1.0
   7.8491525482263551    0.0000000000000000   -0.0005131823411988
  -3.9241309819233892    6.7978225750630816   -0.0005131823411988
   0.0000000000000000    0.0000000000000000    3.4606504440307617
Ir Nd Sn
3 3 3
direct
   0.0000000000000000    0.0000000000000000    0.0000000000000000 Ir
   0.6666666865348816    0.3333333432674408    0.5000000000000000 Ir
   0.3333333432674408    0.6666666865348816    0.5000000000000000 Ir
   0.4025268554687500    0.4025268554687500    0.0000000000000000 Nd
   0.5974731445312500    0.0000000000000000    0.0000000000000000 Nd
   0.0000000000000000    0.5974731445312500    0.0000000000000000 Nd
   0.7402343750000000    0.7402343750000000    0.5000000000000000 Sn
   0.2597656250000000    0.0000000000000000    0.5000000000000000 Sn
   0.0000000000000000    0.2597656250000000    0.5000000000000000 Sn
