Cd2 Sn2 Sb2 Se8
1.0
   9.5390510355202771    0.0000000000000000   -0.0006236689264409
  -0.0002648186265864    4.0501508539628528   -0.0002648013131504
   0.0000000000000000    0.0000000000000000   12.7354507446289062
Se Cd Sn Sb
8 2 2 2
direct
   0.5000000000000000    0.8201904296875000    0.0579833984375000 Se
   0.0000000000000000    0.1798095703125000    0.5579833984375000 Se
   0.5000000000000000    0.5747680664062500    0.7745361328125000 Se
   0.0000000000000000    0.4252319335937500    0.2745361328125000 Se
   0.5000000000000000    0.3520812988281250    0.2306518554687500 Se
   0.0000000000000000    0.6479187011718750    0.7306518554687500 Se
   0.0000000000000000    0.4892883300781250    0.9981689453125000 Se
   0.5000000000000000    0.5107116699218750    0.4981689453125000 Se
   0.5000000000000000    0.0335693359375000    0.6425247192382812 Cd
   0.0000000000000000    0.9664306640625000    0.1425247192382812 Cd
   0.0000000000000000    0.1157073974609375    0.8504638671875000 Sn
   0.5000000000000000    0.8842926025390625    0.3504638671875000 Sn
   0.5000000000000000    0.2964172363281250    0.9341125488281250 Sb
   0.0000000000000000    0.7035827636718750    0.4341125488281250 Sb
