Co8 Si8 Sn8
1.0
   7.6526508167737823    0.0000000000000000   -0.0005003349391414
  -0.0007290642658462   11.1503495693377310   -0.0007290166007415
   0.0000000000000000    0.0000000000000000    4.8099517822265625
Co Sn Si
8 8 8
direct
   0.2500000000000000    0.3093261718750000    0.2500000000000000 Co
   0.7500000000000000    0.1906738281250000    0.7500000000000000 Co
   0.7500000000000000    0.8093261718750000    0.2500000000000000 Co
   0.2500000000000000    0.6906738281250000    0.7500000000000000 Co
   0.7500000000000000    0.6906738281250000    0.7500000000000000 Co
   0.2500000000000000    0.8093261718750000    0.2500000000000000 Co
   0.2500000000000000    0.1906738281250000    0.7500000000000000 Co
   0.7500000000000000    0.3093261718750000    0.2500000000000000 Co
   0.2500000000000000    0.5700263977050781    0.2500000000000000 Sn
   0.7500000000000000    0.9299736022949219    0.7500000000000000 Sn
   0.7500000000000000    0.0700263977050781    0.2500000000000000 Sn
   0.2500000000000000    0.4299736022949219    0.7500000000000000 Sn
   0.7500000000000000    0.4299736022949219    0.7500000000000000 Sn
   0.2500000000000000    0.0700263977050781    0.2500000000000000 Sn
   0.2500000000000000    0.9299736022949219    0.7500000000000000 Sn
   0.7500000000000000    0.5700263977050781    0.2500000000000000 Sn
   0.0000000000000000    0.2839355468750000    0.5312194824218750 Si
   0.0000000000000000    0.2160644531250000    0.0312194824218750 Si
   0.0000000000000000    0.7839355468750000    0.9687805175781250 Si
   0.0000000000000000    0.7160644531250000    0.4687805175781250 Si
   0.5000000000000000    0.7839355468750000    0.5312194824218750 Si
   0.5000000000000000    0.7160644531250000    0.0312194824218750 Si
   0.5000000000000000    0.2839355468750000    0.9687805175781250 Si
   0.5000000000000000    0.2160644531250000    0.4687805175781250 Si
