Cs4 Fe2 Cu4 F24
1.0
   7.6395487622058385    0.0000000000000000   -0.0004994783188890
  -0.0005680345076832    8.6875514612746461   -0.0005679973704574
   0.0000000000000000    0.0000000000000000    9.9058494567871094
Fe Cu F Cs F
2 4 8 4 16
direct
   0.0000000000000000    0.5000000000000000    0.0000000000000000 Fe
   0.5000000000000000    0.0000000000000000    0.5000000000000000 Fe
   0.0000000000000000    0.7524719238281250    0.5000000000000000 Cu
   0.0000000000000000    0.2475280761718750    0.5000000000000000 Cu
   0.5000000000000000    0.2524719238281250    0.0000000000000000 Cu
   0.5000000000000000    0.7475280761718750    0.0000000000000000 Cu
   0.0000000000000000    0.0000000000000000    0.9366950988769531 F
   0.0000000000000000    0.0000000000000000    0.0633049011230469 F
   0.5000000000000000    0.5000000000000000    0.4366950988769531 F
   0.5000000000000000    0.5000000000000000    0.5633049011230469 F
   0.0000000000000000    0.0000000000000000    0.5733947753906250 F
   0.0000000000000000    0.0000000000000000    0.4266052246093750 F
   0.5000000000000000    0.5000000000000000    0.0733947753906250 F
   0.5000000000000000    0.5000000000000000    0.9266052246093750 F
   0.0000000000000000    0.0000000000000000    0.2117309570312500 Cs
   0.0000000000000000    0.0000000000000000    0.7882690429687500 Cs
   0.5000000000000000    0.5000000000000000    0.7117309570312500 Cs
   0.5000000000000000    0.5000000000000000    0.2882690429687500 Cs
   0.1587982177734375    0.3653717041015625    0.8806915283203125 F
   0.8412017822265625    0.6346282958984375    0.8806915283203125 F
   0.8412017822265625    0.3653717041015625    0.1193084716796875 F
   0.1587982177734375    0.6346282958984375    0.1193084716796875 F
   0.8412017822265625    0.6346282958984375    0.1193084716796875 F
   0.1587982177734375    0.3653717041015625    0.1193084716796875 F
   0.1587982177734375    0.6346282958984375    0.8806915283203125 F
   0.8412017822265625    0.3653717041015625    0.8806915283203125 F
   0.6587982177734375    0.8653717041015625    0.3806915283203125 F
   0.3412017822265625    0.1346282958984375    0.3806915283203125 F
   0.3412017822265625    0.8653717041015625    0.6193084716796875 F
   0.6587982177734375    0.1346282958984375    0.6193084716796875 F
   0.3412017822265625    0.1346282958984375    0.6193084716796875 F
   0.6587982177734375    0.8653717041015625    0.6193084716796875 F
   0.6587982177734375    0.1346282958984375    0.3806915283203125 F
   0.3412017822265625    0.8653717041015625    0.3806915283203125 F
