Au8 F32
1.0
   9.7093486578369621    0.0000000000000000   -0.0006348030879932
  -0.0008789591968306   13.4428510091224709   -0.0008789017318250
   0.0000000000000000    0.0000000000000000    5.6876525878906250
Au F
8 32
direct
   0.0000000000000000    0.0000000000000000    0.3244628906250000 Au
   0.2500000000000000    0.2500000000000000    0.5744628906250000 Au
   0.0000000000000000    0.5000000000000000    0.8244628906250000 Au
   0.2500000000000000    0.7500000000000000    0.0744628906250000 Au
   0.5000000000000000    0.0000000000000000    0.8244628906250000 Au
   0.7500000000000000    0.2500000000000000    0.0744628906250000 Au
   0.5000000000000000    0.5000000000000000    0.3244628906250000 Au
   0.7500000000000000    0.7500000000000000    0.5744628906250000 Au
   0.3327331542968750    0.6570129394531250    0.3005332946777344 F
   0.6672668457031250    0.3429870605468750    0.3005332946777344 F
   0.5827331542968750    0.5929870605468750    0.5505332946777344 F
   0.9172668457031250    0.9070129394531250    0.5505332946777344 F
   0.3327331542968750    0.1570129394531250    0.8005332946777344 F
   0.6672668457031250    0.8429870605468750    0.8005332946777344 F
   0.5827331542968750    0.0929870605468750    0.0505332946777344 F
   0.9172668457031250    0.4070129394531250    0.0505332946777344 F
   0.8327331542968750    0.6570129394531250    0.8005332946777344 F
   0.1672668457031250    0.3429870605468750    0.8005332946777344 F
   0.0827331542968750    0.5929870605468750    0.0505332946777344 F
   0.4172668457031250    0.9070129394531250    0.0505332946777344 F
   0.8327331542968750    0.1570129394531250    0.3005332946777344 F
   0.1672668457031250    0.8429870605468750    0.3005332946777344 F
   0.0827331542968750    0.0929870605468750    0.5505332946777344 F
   0.4172668457031250    0.4070129394531250    0.5505332946777344 F
   0.1250610351562500    0.0468521118164062    0.0984497070312500 F
   0.8749389648437500    0.9531478881835938    0.0984497070312500 F
   0.3750610351562500    0.2031478881835938    0.3484497070312500 F
   0.1249389648437500    0.2968521118164062    0.3484497070312500 F
   0.1250610351562500    0.5468521118164062    0.5984497070312500 F
   0.8749389648437500    0.4531478881835938    0.5984497070312500 F
   0.3750610351562500    0.7031478881835938    0.8484497070312500 F
   0.1249389648437500    0.7968521118164062    0.8484497070312500 F
   0.6250610351562500    0.0468521118164062    0.5984497070312500 F
   0.3749389648437500    0.9531478881835938    0.5984497070312500 F
   0.8750610351562500    0.2031478881835938    0.8484497070312500 F
   0.6249389648437500    0.2968521118164062    0.8484497070312500 F
   0.6250610351562500    0.5468521118164062    0.0984497070312500 F
   0.3749389648437500    0.4531478881835938    0.0984497070312500 F
   0.8750610351562500    0.7031478881835938    0.3484497070312500 F
   0.6249389648437500    0.7968521118164062    0.3484497070312500 F
