Ca2 P2 Pd2
1.0
   4.2597503571065225    0.0000000000000000   -0.0002785050548771
  -2.1296335176156234    3.6891915354881286   -0.0002785050548771
   0.0000000000000000    0.0000000000000000    7.5740494728088379
Ca Pd P
2 2 2
direct
   0.0000000000000000    0.0000000000000000    0.0000000000000000 Ca
   0.0000000000000000    0.0000000000000000    0.5000000000000000 Ca
   0.3333333432674408    0.6666666865348816    0.2500000000000000 Pd
   0.6666666269302368    0.3333333134651184    0.7500000000000000 Pd
   0.6666666865348816    0.3333333432674408    0.2500000000000000 P
   0.3333333134651184    0.6666666269302368    0.7500000000000000 P
