Ce3 Zn3 Pd3
1.0
   7.4954480964676833    0.0000000000000000   -0.0004900569302031
  -3.7472988221376720    6.4914939501201596   -0.0004900569302031
   0.0000000000000000    0.0000000000000000    4.1549482345581055
Pd Zn Ce
3 3 3
direct
   0.0000000000000000    0.0000000000000000    0.5000000000000000 Pd
   0.6666666865348816    0.3333333432674408    0.0000000000000000 Pd
   0.3333333432674408    0.6666666865348816    0.0000000000000000 Pd
   0.2397460937500000    0.0000000000000000    0.0000000000000000 Zn
   0.0000000000000000    0.2397460937500000    0.0000000000000000 Zn
   0.7602539062500000    0.7602539062500000    0.0000000000000000 Zn
   0.5888671875000000    0.0000000000000000    0.5000000000000000 Ce
   0.0000000000000000    0.5888671875000000    0.5000000000000000 Ce
   0.4111328125000000    0.4111328125000000    0.5000000000000000 Ce
