Sr4 Fe2 F8
1.0
   4.3252534773888858    0.0000000000000000   -0.0002827876885010
  -0.0002828061779356    4.3252534681432619   -0.0002827876885010
   0.0000000000000000    0.0000000000000000   11.0586462020874023
Fe F Sr
2 8 4
direct
   0.0000000000000000    0.0000000000000000    0.0000000000000000 Fe
   0.5000000000000000    0.5000000000000000    0.5000000000000000 Fe
   0.0000000000000000    0.5000000000000000    0.0000000000000000 F
   0.5000000000000000    0.0000000000000000    0.0000000000000000 F
   0.5000000000000000    0.0000000000000000    0.5000000000000000 F
   0.0000000000000000    0.5000000000000000    0.5000000000000000 F
   0.0000000000000000    0.5000000000000000    0.2500000000000000 F
   0.5000000000000000    0.0000000000000000    0.2500000000000000 F
   0.0000000000000000    0.5000000000000000    0.7500000000000000 F
   0.5000000000000000    0.0000000000000000    0.7500000000000000 F
   0.0000000000000000    0.0000000000000000    0.3451538085937500 Sr
   0.0000000000000000    0.0000000000000000    0.6548461914062500 Sr
   0.5000000000000000    0.5000000000000000    0.8451538085937500 Sr
   0.5000000000000000    0.5000000000000000    0.1548461914062500 Sr
