Ho1 Pb3
1.0
   4.7182521719224599    0.0000000000000000   -0.0003084821808567
  -0.0003085023502676    4.7182521618367659   -0.0003084821808567
   0.0000000000000000    0.0000000000000000    4.7182521820068359
Ho Pb
1 3
direct
   0.0000000000000000    0.0000000000000000    0.0000000000000000 Ho
   0.5000000000000000    0.5000000000000000    0.0000000000000000 Pb
   0.0000000000000000    0.5000000000000000    0.5000000000000000 Pb
   0.5000000000000000    0.0000000000000000    0.5000000000000000 Pb
