Na1 Zr2 Tl1 Cu2 O8
1.0
   3.8798496640250564    0.0000000000000000   -0.0002536669177787
  -0.0002536835032175    3.8798496557315238   -0.0002536669177787
   0.0000000000000000    0.0000000000000000   15.7222509384155273
Tl Na O Zr O Cu O
1 1 2 2 2 2 4
direct
   0.0000000000000000    0.0000000000000000    0.0000000000000000 Tl
   0.5000000000000000    0.5000000000000000    0.5000000000000000 Na
   0.0000000000000000    0.0000000000000000    0.7712249755859375 O
   0.0000000000000000    0.0000000000000000    0.2287750244140625 O
   0.0000000000000000    0.0000000000000000    0.3507995605468750 Zr
   0.0000000000000000    0.0000000000000000    0.6492004394531250 Zr
   0.5000000000000000    0.5000000000000000    0.9045104980468750 O
   0.5000000000000000    0.5000000000000000    0.0954895019531250 O
   0.5000000000000000    0.5000000000000000    0.2119140625000000 Cu
   0.5000000000000000    0.5000000000000000    0.7880859375000000 Cu
   0.0000000000000000    0.5000000000000000    0.3917236328125000 O
   0.5000000000000000    0.0000000000000000    0.3917236328125000 O
   0.0000000000000000    0.5000000000000000    0.6082763671875000 O
   0.5000000000000000    0.0000000000000000    0.6082763671875000 O
