Rb4 Cl12
1.0
   3.9060501968822656    0.0000000000000000   -0.0002553799244645
  -0.0009551913181675   14.6087493271974509   -0.0009551288692226
   0.0000000000000000    0.0000000000000000    9.5259494781494141
Cl Rb Cl
4 4 8
direct
   0.0000000000000000    0.0795288085937500    0.2500000000000000 Cl
   0.0000000000000000    0.9204711914062500    0.7500000000000000 Cl
   0.5000000000000000    0.5795288085937500    0.2500000000000000 Cl
   0.5000000000000000    0.4204711914062500    0.7500000000000000 Cl
   0.0000000000000000    0.7516174316406250    0.2500000000000000 Rb
   0.0000000000000000    0.2483825683593750    0.7500000000000000 Rb
   0.5000000000000000    0.2516174316406250    0.2500000000000000 Rb
   0.5000000000000000    0.7483825683593750    0.7500000000000000 Rb
   0.5000000000000000    0.8554687500000000    0.0550537109375000 Cl
   0.5000000000000000    0.1445312500000000    0.5550537109375000 Cl
   0.5000000000000000    0.8554687500000000    0.4449462890625000 Cl
   0.5000000000000000    0.1445312500000000    0.9449462890625000 Cl
   0.0000000000000000    0.3554687500000000    0.0550537109375000 Cl
   0.0000000000000000    0.6445312500000000    0.5550537109375000 Cl
   0.0000000000000000    0.3554687500000000    0.4449462890625000 Cl
   0.0000000000000000    0.6445312500000000    0.9449462890625000 Cl
