In1 Fe1 B1 N1 Cl1 O5
1.0
   5.4387473771935522    0.0000000000000000   -0.0060515264898198
  -0.0003602718058819    5.5042495491991028   -0.0003598711655680
   0.0000000000000000    0.0000000000000000    5.8317532539367676
Cl In B N O Fe O
1 1 1 1 1 1 4
direct
   0.9007568359375000    0.0000000000000000    0.6606445312500000 Cl
   0.2044677734375000    0.0000000000000000    0.0794525146484375 In
   0.4104003906250000    0.5000000000000000    0.5036621093750000 B
   0.2727050781250000    0.5000000000000000    0.7187500000000000 N
   0.6787109375000000    0.5000000000000000    0.5195312500000000 O
   0.0117187500000000    0.5000000000000000    0.3435058593750000 Fe
   0.3286132812500000    0.2901000976562500    0.3660278320312500 O
   0.3286132812500000    0.7098999023437500    0.3660278320312500 O
   0.8991699218750000    0.2618408203125000    0.1336059570312500 O
   0.8991699218750000    0.7381591796875000    0.1336059570312500 O
