Cr4 In2 C2
1.0
   2.9890501435290706    0.0000000000000000   -0.0001954259063246
  -1.4943554992309884    2.5886912528243422   -0.0001954259063246
   0.0000000000000000    0.0000000000000000   12.1197509765625000
C In Cr
2 2 4
direct
   0.0000000000000000    0.0000000000000000    0.0000000000000000 C
   0.0000000000000000    0.0000000000000000    0.5000000000000000 C
   0.6666666865348816    0.3333333432674408    0.2500000000000000 In
   0.3333333134651184    0.6666666269302368    0.7500000000000000 In
   0.3333333432674408    0.6666666865348816    0.0771484375000000 Cr
   0.6666666269302368    0.3333333134651184    0.5771484375000000 Cr
   0.6666666865348816    0.3333333432674408    0.9228515625000000 Cr
   0.3333333134651184    0.6666666269302368    0.4228515625000000 Cr
