Hf4 Mg4
1.0
  12.2155793966372759    0.0000000000000000   -3.1594482414452334
  -0.0002546138351356    3.0152466125203770   -0.0001971386480151
   0.0000000000000000    0.0000000000000000    5.9365472793579102
Mg Hf
4 4
direct
   0.3776245117187500    0.0000000000000000    0.0984039306640625 Mg
   0.6223754882812500    0.0000000000000000    0.9015960693359375 Mg
   0.8776245117187500    0.5000000000000000    0.0984039306640625 Mg
   0.1223754882812500    0.5000000000000000    0.9015960693359375 Mg
   0.8691406250000000    0.0000000000000000    0.5907154083251953 Hf
   0.1308593750000000    0.0000000000000000    0.4092845916748047 Hf
   0.3691406250000000    0.5000000000000000    0.5907154083251953 Hf
   0.6308593750000000    0.5000000000000000    0.4092845916748047 Hf
