Ba2 C6 N4 O8
1.0
   8.1444628087580835    0.0000000000000000   -0.5579110521182039
  -0.0003578515508802    5.1112508539289898   -0.0003341766732123
   0.0000000000000000    0.0000000000000000    7.7705469131469727
C Ba C N O
2 2 4 4 8
direct
   0.5000000000000000    0.0000000000000000    0.0000000000000000 C
   0.0000000000000000    0.5000000000000000    0.0000000000000000 C
   0.0000000000000000    0.0000000000000000    0.5000000000000000 Ba
   0.5000000000000000    0.5000000000000000    0.5000000000000000 Ba
   0.3587646484375000    0.0000000000000000    0.7651367187500000 C
   0.6412353515625000    0.0000000000000000    0.2348632812500000 C
   0.8587646484375000    0.5000000000000000    0.7651367187500000 C
   0.1412353515625000    0.5000000000000000    0.2348632812500000 C
   0.7741699218750000    0.0000000000000000    0.1658592224121094 N
   0.2258300781250000    0.0000000000000000    0.8341407775878906 N
   0.2741699218750000    0.5000000000000000    0.1658592224121094 N
   0.7258300781250000    0.5000000000000000    0.8341407775878906 N
   0.6465454101562500    0.0000000000000000    0.3889160156250000 O
   0.3534545898437500    0.0000000000000000    0.6110839843750000 O
   0.1465454101562500    0.5000000000000000    0.3889160156250000 O
   0.8534545898437500    0.5000000000000000    0.6110839843750000 O
   0.4791259765625000    0.0000000000000000    0.1372375488281250 O
   0.5208740234375000    0.0000000000000000    0.8627624511718750 O
   0.9791259765625000    0.5000000000000000    0.1372375488281250 O
   0.0208740234375000    0.5000000000000000    0.8627624511718750 O
