Au8 F32
1.0
   9.7093486578369621    0.0000000000000000   -0.0006348030879932
  -0.0008789591968306   13.4428510091224709   -0.0008789017318250
   0.0000000000000000    0.0000000000000000    5.6876525878906250
Au F
8 32
direct
   0.0000000000000000    0.0000000000000000    0.0107421875000000 Au
   0.2500000000000000    0.2500000000000000    0.2607421875000000 Au
   0.0000000000000000    0.5000000000000000    0.5107421875000000 Au
   0.2500000000000000    0.7500000000000000    0.7607421875000000 Au
   0.5000000000000000    0.0000000000000000    0.5107421875000000 Au
   0.7500000000000000    0.2500000000000000    0.7607421875000000 Au
   0.5000000000000000    0.5000000000000000    0.0107421875000000 Au
   0.7500000000000000    0.7500000000000000    0.2607421875000000 Au
   0.4046630859375000    0.0805664062500000    0.7547149658203125 F
   0.5953369140625000    0.9194335937500000    0.7547149658203125 F
   0.6546630859375000    0.1694335937500000    0.0047149658203125 F
   0.8453369140625000    0.3305664062500000    0.0047149658203125 F
   0.4046630859375000    0.5805664062500000    0.2547149658203125 F
   0.5953369140625000    0.4194335937500000    0.2547149658203125 F
   0.6546630859375000    0.6694335937500000    0.5047149658203125 F
   0.8453369140625000    0.8305664062500000    0.5047149658203125 F
   0.9046630859375000    0.0805664062500000    0.2547149658203125 F
   0.0953369140625000    0.9194335937500000    0.2547149658203125 F
   0.1546630859375000    0.1694335937500000    0.5047149658203125 F
   0.3453369140625000    0.3305664062500000    0.5047149658203125 F
   0.9046630859375000    0.5805664062500000    0.7547149658203125 F
   0.0953369140625000    0.4194335937500000    0.7547149658203125 F
   0.1546630859375000    0.6694335937500000    0.0047149658203125 F
   0.3453369140625000    0.8305664062500000    0.0047149658203125 F
   0.6043395996093750    0.4069938659667969    0.8029785156250000 F
   0.3956604003906250    0.5930061340332031    0.8029785156250000 F
   0.8543395996093750    0.8430061340332031    0.0529785156250000 F
   0.6456604003906250    0.6569938659667969    0.0529785156250000 F
   0.6043395996093750    0.9069938659667969    0.3029785156250000 F
   0.3956604003906250    0.0930061340332031    0.3029785156250000 F
   0.8543395996093750    0.3430061340332031    0.5529785156250000 F
   0.6456604003906250    0.1569938659667969    0.5529785156250000 F
   0.1043395996093750    0.4069938659667969    0.3029785156250000 F
   0.8956604003906250    0.5930061340332031    0.3029785156250000 F
   0.3543395996093750    0.8430061340332031    0.5529785156250000 F
   0.1456604003906250    0.6569938659667969    0.5529785156250000 F
   0.1043395996093750    0.9069938659667969    0.8029785156250000 F
   0.8956604003906250    0.0930061340332031    0.8029785156250000 F
   0.3543395996093750    0.3430061340332031    0.0529785156250000 F
   0.1456604003906250    0.1569938659667969    0.0529785156250000 F
