Dy4 Cl8
1.0
   5.6485375330126457    0.0000000000000000   -1.2226755302872954
  -0.0004514112253732    5.5697488482819599   -0.0003641535497847
   0.0000000000000000    0.0000000000000000    7.6002502441406250
Cl Dy
8 4
direct
   0.8980712890625000    0.7389221191406250    0.9781494140625000 Cl
   0.1019287109375000    0.2389221191406250    0.5218505859375000 Cl
   0.1019287109375000    0.2610778808593750    0.0218505859375000 Cl
   0.8980712890625000    0.7610778808593750    0.4781494140625000 Cl
   0.5705566406250000    0.2022705078125000    0.8899536132812500 Cl
   0.4294433593750000    0.7022705078125000    0.6100463867187500 Cl
   0.4294433593750000    0.7977294921875000    0.1100463867187500 Cl
   0.5705566406250000    0.2977294921875000    0.3899536132812500 Cl
   0.1909790039062500    0.9382324218750000    0.7949523925781250 Dy
   0.8090209960937500    0.4382324218750000    0.7050476074218750 Dy
   0.8090209960937500    0.0617675781250000    0.2050476074218750 Dy
   0.1909790039062500    0.5617675781250000    0.2949523925781250 Dy
