Y6 Sc4 Si6
1.0
   8.1635494057697233    0.0000000000000000   -0.0005337377979093
  -4.0813115745701793    7.0701085374782391   -0.0005337377979093
   0.0000000000000000    0.0000000000000000    6.0282506942749023
Sc Si Y
4 6 6
direct
   0.6666666865348816    0.3333333432674408    0.0000000000000000 Sc
   0.3333333134651184    0.6666666269302368    0.5000000000000000 Sc
   0.3333333134651184    0.6666666269302368    0.0000000000000000 Sc
   0.6666666865348816    0.3333333432674408    0.5000000000000000 Sc
   0.6065673828125000    0.6065673828125000    0.2500000000000000 Si
   0.3934326171875000    0.0000000000000000    0.2500000000000000 Si
   0.0000000000000000    0.3934326171875000    0.2500000000000000 Si
   0.3934326171875000    0.3934326171875000    0.7500000000000000 Si
   0.6065673828125000    0.0000000000000000    0.7500000000000000 Si
   0.0000000000000000    0.6065673828125000    0.7500000000000000 Si
   0.2364501953125000    0.2364501953125000    0.2500000000000000 Y
   0.7635498046875000    0.0000000000000000    0.2500000000000000 Y
   0.0000000000000000    0.7635498046875000    0.2500000000000000 Y
   0.7635498046875000    0.7635498046875000    0.7500000000000000 Y
   0.2364501953125000    0.0000000000000000    0.7500000000000000 Y
   0.0000000000000000    0.2364501953125000    0.7500000000000000 Y
