Sr6 Y2 N2 Cl4 O20
1.0
   5.2815251167883686    0.0000000000000000   -0.0155551391398042
  -0.0006160593139118    9.3949508264207129   -0.0006142475689309
   0.0000000000000000    0.0000000000000000    8.5041522979736328
N O Sr Y O Cl
2 4 6 2 16 4
direct
   0.7680664062500000    0.0000000000000000    0.9907226562500000 N
   0.2680664062500000    0.5000000000000000    0.9907226562500000 N
   0.7290039062500000    0.0000000000000000    0.4618530273437500 O
   0.2290039062500000    0.5000000000000000    0.4618530273437500 O
   0.0393066406250000    0.0000000000000000    0.2669067382812500 O
   0.5393066406250000    0.5000000000000000    0.2669067382812500 O
   0.2568664550781250    0.0000000000000000    0.4482421875000000 Sr
   0.7568664550781250    0.5000000000000000    0.4482421875000000 Sr
   0.2552490234375000    0.0000000000000000    0.0299072265625000 Sr
   0.7552490234375000    0.5000000000000000    0.0299072265625000 Sr
   0.7436828613281250    0.0000000000000000    0.7174072265625000 Sr
   0.2436828613281250    0.5000000000000000    0.7174072265625000 Sr
   0.7065429687500000    0.0000000000000000    0.2310791015625000 Y
   0.2065429687500000    0.5000000000000000    0.2310791015625000 Y
   0.9372558593750000    0.3352355957031250    0.2591552734375000 O
   0.9372558593750000    0.6647644042968750    0.2591552734375000 O
   0.4372558593750000    0.8352355957031250    0.2591552734375000 O
   0.4372558593750000    0.1647644042968750    0.2591552734375000 O
   0.5867919921875000    0.3313598632812500    0.6274414062500000 O
   0.5867919921875000    0.6686401367187500    0.6274414062500000 O
   0.0867919921875000    0.8313598632812500    0.6274414062500000 O
   0.0867919921875000    0.1686401367187500    0.6274414062500000 O
   0.9440917968750000    0.6792602539062500    0.8256835937500000 O
   0.9440917968750000    0.3207397460937500    0.8256835937500000 O
   0.4440917968750000    0.1792602539062500    0.8256835937500000 O
   0.4440917968750000    0.8207397460937500    0.8256835937500000 O
   0.3210449218750000    0.3676757812500000    0.0273437500000000 O
   0.3210449218750000    0.6323242187500000    0.0273437500000000 O
   0.8210449218750000    0.8676757812500000    0.0273437500000000 O
   0.8210449218750000    0.1323242187500000    0.0273437500000000 O
   0.6542968750000000    0.2982788085937500    0.7749023437500000 Cl
   0.6542968750000000    0.7017211914062500    0.7749023437500000 Cl
   0.1542968750000000    0.7982788085937500    0.7749023437500000 Cl
   0.1542968750000000    0.2017211914062500    0.7749023437500000 Cl
