K8 Nb4 W4 O24
1.0
   7.9801506825594082    0.0000000000000000   -0.0005217470784563
  -0.0005217811917112    7.9801506655011085   -0.0005217470784563
   0.0000000000000000    0.0000000000000000    7.9801506996154785
Nb W K O
4 4 8 24
direct
   0.0000000000000000    0.0000000000000000    0.0000000000000000 Nb
   0.0000000000000000    0.5000000000000000    0.5000000000000000 Nb
   0.5000000000000000    0.0000000000000000    0.5000000000000000 Nb
   0.5000000000000000    0.5000000000000000    0.0000000000000000 Nb
   0.5000000000000000    0.0000000000000000    0.0000000000000000 W
   0.0000000000000000    0.5000000000000000    0.0000000000000000 W
   0.0000000000000000    0.0000000000000000    0.5000000000000000 W
   0.5000000000000000    0.5000000000000000    0.5000000000000000 W
   0.2500000000000000    0.2500000000000000    0.2500000000000000 K
   0.7500000000000000    0.7500000000000000    0.2500000000000000 K
   0.7500000000000000    0.2500000000000000    0.7500000000000000 K
   0.2500000000000000    0.7500000000000000    0.7500000000000000 K
   0.2500000000000000    0.2500000000000000    0.7500000000000000 K
   0.7500000000000000    0.7500000000000000    0.7500000000000000 K
   0.2500000000000000    0.7500000000000000    0.2500000000000000 K
   0.7500000000000000    0.2500000000000000    0.2500000000000000 K
   0.2546691894531250    0.0000000000000000    0.0000000000000000 O
   0.7453308105468750    0.0000000000000000    0.0000000000000000 O
   0.0000000000000000    0.2546691894531250    0.0000000000000000 O
   0.0000000000000000    0.7453308105468750    0.0000000000000000 O
   0.0000000000000000    0.0000000000000000    0.2546691894531250 O
   0.0000000000000000    0.0000000000000000    0.7453308105468750 O
   0.2546691894531250    0.5000000000000000    0.5000000000000000 O
   0.7453308105468750    0.5000000000000000    0.5000000000000000 O
   0.0000000000000000    0.7546691894531250    0.5000000000000000 O
   0.0000000000000000    0.2453308105468750    0.5000000000000000 O
   0.0000000000000000    0.5000000000000000    0.7546691894531250 O
   0.0000000000000000    0.5000000000000000    0.2453308105468750 O
   0.7546691894531250    0.0000000000000000    0.5000000000000000 O
   0.2453308105468750    0.0000000000000000    0.5000000000000000 O
   0.5000000000000000    0.2546691894531250    0.5000000000000000 O
   0.5000000000000000    0.7453308105468750    0.5000000000000000 O
   0.5000000000000000    0.0000000000000000    0.7546691894531250 O
   0.5000000000000000    0.0000000000000000    0.2453308105468750 O
   0.7546691894531250    0.5000000000000000    0.0000000000000000 O
   0.2453308105468750    0.5000000000000000    0.0000000000000000 O
   0.5000000000000000    0.7546691894531250    0.0000000000000000 O
   0.5000000000000000    0.2453308105468750    0.0000000000000000 O
   0.5000000000000000    0.5000000000000000    0.2546691894531250 O
   0.5000000000000000    0.5000000000000000    0.7453308105468750 O
