Zn4 Cr16 Ga4 S32
1.0
  10.2202472468329031    0.0000000000000000   -0.0006682059467611
  -0.0006682496358985   10.2202472249861920   -0.0006682059467611
   0.0000000000000000    0.0000000000000000   10.2202472686767578
Ga Zn S Cr
4 4 32 16
direct
   0.5000000000000000    0.0000000000000000    0.0000000000000000 Ga
   0.0000000000000000    0.5000000000000000    0.0000000000000000 Ga
   0.0000000000000000    0.0000000000000000    0.5000000000000000 Ga
   0.5000000000000000    0.5000000000000000    0.5000000000000000 Ga
   0.2500000000000000    0.2500000000000000    0.2500000000000000 Zn
   0.7500000000000000    0.7500000000000000    0.2500000000000000 Zn
   0.7500000000000000    0.2500000000000000    0.7500000000000000 Zn
   0.2500000000000000    0.7500000000000000    0.7500000000000000 Zn
   0.3730773925781250    0.3730773925781250    0.3730773925781250 S
   0.6269226074218750    0.6269226074218750    0.3730773925781250 S
   0.6269226074218750    0.3730773925781250    0.6269226074218750 S
   0.3730773925781250    0.6269226074218750    0.6269226074218750 S
   0.3730773925781250    0.8730773925781250    0.8730773925781250 S
   0.6269226074218750    0.1269226074218750    0.8730773925781250 S
   0.6269226074218750    0.8730773925781250    0.1269226074218750 S
   0.3730773925781250    0.1269226074218750    0.1269226074218750 S
   0.8730773925781250    0.3730773925781250    0.8730773925781250 S
   0.1269226074218750    0.6269226074218750    0.8730773925781250 S
   0.1269226074218750    0.3730773925781250    0.1269226074218750 S
   0.8730773925781250    0.6269226074218750    0.1269226074218750 S
   0.8730773925781250    0.8730773925781250    0.3730773925781250 S
   0.1269226074218750    0.1269226074218750    0.3730773925781250 S
   0.1269226074218750    0.8730773925781250    0.6269226074218750 S
   0.8730773925781250    0.1269226074218750    0.6269226074218750 S
   0.1159667968750000    0.1159667968750000    0.8840332031250000 S
   0.8840332031250000    0.8840332031250000    0.8840332031250000 S
   0.8840332031250000    0.1159667968750000    0.1159667968750000 S
   0.1159667968750000    0.8840332031250000    0.1159667968750000 S
   0.1159667968750000    0.6159667968750000    0.3840332031250000 S
   0.8840332031250000    0.3840332031250000    0.3840332031250000 S
   0.8840332031250000    0.6159667968750000    0.6159667968750000 S
   0.1159667968750000    0.3840332031250000    0.6159667968750000 S
   0.6159667968750000    0.1159667968750000    0.3840332031250000 S
   0.3840332031250000    0.8840332031250000    0.3840332031250000 S
   0.3840332031250000    0.1159667968750000    0.6159667968750000 S
   0.6159667968750000    0.8840332031250000    0.6159667968750000 S
   0.6159667968750000    0.6159667968750000    0.8840332031250000 S
   0.3840332031250000    0.3840332031250000    0.8840332031250000 S
   0.3840332031250000    0.6159667968750000    0.1159667968750000 S
   0.6159667968750000    0.3840332031250000    0.1159667968750000 S
   0.1033630371093750    0.3966369628906250    0.3966369628906250 Cr
   0.8966369628906250    0.6033630371093750    0.3966369628906250 Cr
   0.8966369628906250    0.3966369628906250    0.6033630371093750 Cr
   0.1033630371093750    0.6033630371093750    0.6033630371093750 Cr
   0.3966369628906250    0.1033630371093750    0.3966369628906250 Cr
   0.3966369628906250    0.8966369628906250    0.6033630371093750 Cr
   0.6033630371093750    0.8966369628906250    0.3966369628906250 Cr
   0.6033630371093750    0.1033630371093750    0.6033630371093750 Cr
   0.3966369628906250    0.3966369628906250    0.1033630371093750 Cr
   0.6033630371093750    0.3966369628906250    0.8966369628906250 Cr
   0.3966369628906250    0.6033630371093750    0.8966369628906250 Cr
   0.6033630371093750    0.6033630371093750    0.1033630371093750 Cr
   0.1033630371093750    0.8966369628906250    0.8966369628906250 Cr
   0.8966369628906250    0.1033630371093750    0.8966369628906250 Cr
   0.8966369628906250    0.8966369628906250    0.1033630371093750 Cr
   0.1033630371093750    0.1033630371093750    0.1033630371093750 Cr
