Li4 Ga4 Cu8
1.0
   5.8841504924896535    0.0000000000000000   -0.0003847093182543
  -0.0003847344716045    5.8841504799117450   -0.0003847093182543
   0.0000000000000000    0.0000000000000000    5.8841505050659180
Ga Li Cu
4 4 8
direct
   0.0000000000000000    0.0000000000000000    0.0000000000000000 Ga
   0.0000000000000000    0.5000000000000000    0.5000000000000000 Ga
   0.5000000000000000    0.0000000000000000    0.5000000000000000 Ga
   0.5000000000000000    0.5000000000000000    0.0000000000000000 Ga
   0.5000000000000000    0.0000000000000000    0.0000000000000000 Li
   0.0000000000000000    0.5000000000000000    0.0000000000000000 Li
   0.0000000000000000    0.0000000000000000    0.5000000000000000 Li
   0.5000000000000000    0.5000000000000000    0.5000000000000000 Li
   0.2500000000000000    0.2500000000000000    0.2500000000000000 Cu
   0.7500000000000000    0.7500000000000000    0.2500000000000000 Cu
   0.7500000000000000    0.2500000000000000    0.7500000000000000 Cu
   0.2500000000000000    0.7500000000000000    0.7500000000000000 Cu
   0.2500000000000000    0.2500000000000000    0.7500000000000000 Cu
   0.7500000000000000    0.7500000000000000    0.7500000000000000 Cu
   0.2500000000000000    0.7500000000000000    0.2500000000000000 Cu
   0.7500000000000000    0.2500000000000000    0.2500000000000000 Cu
