Ge2 Te6 As3
1.0
   4.2859506515451535    0.0000000000000000   -0.0002802180459748
  -2.1427321784596374    3.7118825141528853   -0.0002802180459748
   0.0000000000000000    0.0000000000000000   24.8660488128662109
As Ge As Te
1 2 2 6
direct
   0.0000000000000000    0.0000000000000000    0.5000000000000000 As
   0.0000000000000000    0.0000000000000000    0.8547363281250000 Ge
   0.0000000000000000    0.0000000000000000    0.1452636718750000 Ge
   0.6666666865348816    0.3333333432674408    0.4277343750000000 As
   0.3333333432674408    0.6666666865348816    0.5722656250000000 As
   0.6666666865348816    0.3333333432674408    0.6403198242187500 Te
   0.3333333432674408    0.6666666865348816    0.3596801757812500 Te
   0.6666666865348816    0.3333333432674408    0.2108459472656250 Te
   0.3333333432674408    0.6666666865348816    0.7891540527343750 Te
   0.6666666865348816    0.3333333432674408    0.9258422851562500 Te
   0.3333333432674408    0.6666666865348816    0.0741577148437500 Te
