Lu8 Ti8 Sn8 Pb4
1.0
   9.3949508466192793    0.0000000000000000   -0.0006142475689309
  -0.0006237097036257    9.5390510151296848   -0.0006236689264409
   0.0000000000000000    0.0000000000000000    9.8665513992309570
Pb Ti Sn Lu
4 8 8 8
direct
   0.0000000000000000    0.7944388389587402    0.0000000000000000 Pb
   0.0000000000000000    0.2055611610412598    0.0000000000000000 Pb
   0.5000000000000000    0.2944388389587402    0.5000000000000000 Pb
   0.5000000000000000    0.7055611610412598    0.5000000000000000 Pb
   0.8579711914062500    0.0000000000000000    0.1593017578125000 Ti
   0.1420288085937500    0.0000000000000000    0.1593017578125000 Ti
   0.1420288085937500    0.0000000000000000    0.8406982421875000 Ti
   0.8579711914062500    0.0000000000000000    0.8406982421875000 Ti
   0.3579711914062500    0.5000000000000000    0.6593017578125000 Ti
   0.6420288085937500    0.5000000000000000    0.6593017578125000 Ti
   0.6420288085937500    0.5000000000000000    0.3406982421875000 Ti
   0.3579711914062500    0.5000000000000000    0.3406982421875000 Ti
   0.3455200195312500    0.0000000000000000    0.6632690429687500 Sn
   0.6544799804687500    0.0000000000000000    0.6632690429687500 Sn
   0.6544799804687500    0.0000000000000000    0.3367309570312500 Sn
   0.3455200195312500    0.0000000000000000    0.3367309570312500 Sn
   0.8455200195312500    0.5000000000000000    0.1632690429687500 Sn
   0.1544799804687500    0.5000000000000000    0.1632690429687500 Sn
   0.1544799804687500    0.5000000000000000    0.8367309570312500 Sn
   0.8455200195312500    0.5000000000000000    0.8367309570312500 Sn
   0.8248291015625000    0.2445678710937500    0.5000000000000000 Lu
   0.1751708984375000    0.7554321289062500    0.5000000000000000 Lu
   0.1751708984375000    0.2445678710937500    0.5000000000000000 Lu
   0.8248291015625000    0.7554321289062500    0.5000000000000000 Lu
   0.3248291015625000    0.7445678710937500    0.0000000000000000 Lu
   0.6751708984375000    0.2554321289062500    0.0000000000000000 Lu
   0.6751708984375000    0.7445678710937500    0.0000000000000000 Lu
   0.3248291015625000    0.2554321289062500    0.0000000000000000 Lu
