Yb10 Au6
1.0
   8.9233512687698138    0.0000000000000000   -0.0005834141032819
  -4.4611694015652095    7.7281411371942585   -0.0005834141032819
   0.0000000000000000    0.0000000000000000    6.1723475456237793
Yb Au
10 6
direct
   0.6666666865348816    0.3333333432674408    0.0000000000000000 Yb
   0.3333333134651184    0.6666666269302368    0.5000000000000000 Yb
   0.3333333134651184    0.6666666269302368    0.0000000000000000 Yb
   0.6666666865348816    0.3333333432674408    0.5000000000000000 Yb
   0.7446289062500000    0.7446289062500000    0.2500000000000000 Yb
   0.2553710937500000    0.0000000000000000    0.2500000000000000 Yb
   0.0000000000000000    0.2553710937500000    0.2500000000000000 Yb
   0.2553710937500000    0.2553710937500000    0.7500000000000000 Yb
   0.7446289062500000    0.0000000000000000    0.7500000000000000 Yb
   0.0000000000000000    0.7446289062500000    0.7500000000000000 Yb
   0.6151123046875000    0.0000000000000000    0.2500000000000000 Au
   0.0000000000000000    0.6151123046875000    0.2500000000000000 Au
   0.3848876953125000    0.3848876953125000    0.2500000000000000 Au
   0.3848876953125000    0.0000000000000000    0.7500000000000000 Au
   0.0000000000000000    0.3848876953125000    0.7500000000000000 Au
   0.6151123046875000    0.6151123046875000    0.7500000000000000 Au
