V12 O20
1.0
   7.7056770660678353    0.0000000000000000   -7.6184191145216493
  -0.0011469748423766    7.3251513380284461   -0.0004789228310025
   0.0000000000000000    0.0000000000000000    7.2596483230590820
V O V O
4 12 8 8
direct
   0.0000000000000000    0.0000000000000000    0.0000000000000000 V
   0.5000000000000000    0.5000000000000000    0.0000000000000000 V
   0.5000000000000000    0.0000000000000000    0.5000000000000000 V
   0.0000000000000000    0.5000000000000000    0.5000000000000000 V
   0.7475585937500000    0.0000000000000000    0.2436523437500000 O
   0.2524414062500000    0.0000000000000000    0.7563476562500000 O
   0.2475585937500000    0.5000000000000000    0.2436523437500000 O
   0.7524414062500000    0.5000000000000000    0.7563476562500000 O
   0.0098876953125000    0.0000000000000000    0.7519340515136719 O
   0.9901123046875000    0.0000000000000000    0.2480659484863281 O
   0.5098876953125000    0.5000000000000000    0.7519340515136719 O
   0.4901123046875000    0.5000000000000000    0.2480659484863281 O
   0.5013427734375000    0.0000000000000000    0.2549381256103516 O
   0.4986572265625000    0.0000000000000000    0.7450618743896484 O
   0.0013427734375000    0.5000000000000000    0.2549381256103516 O
   0.9986572265625000    0.5000000000000000    0.7450618743896484 O
   0.7443237304687500    0.0000000000000000    0.9966125488281250 V
   0.2556762695312500    0.0000000000000000    0.0033874511718750 V
   0.2443237304687500    0.5000000000000000    0.9966125488281250 V
   0.7556762695312500    0.5000000000000000    0.0033874511718750 V
   0.2437744140625000    0.0000000000000000    0.5068359375000000 V
   0.7562255859375000    0.0000000000000000    0.4931640625000000 V
   0.7437744140625000    0.5000000000000000    0.5068359375000000 V
   0.2562255859375000    0.5000000000000000    0.4931640625000000 V
   0.2566833496093750    0.6178588867187500    0.7465209960937500 O
   0.7433166503906250    0.6178588867187500    0.2534790039062500 O
   0.7433166503906250    0.3821411132812500    0.2534790039062500 O
   0.2566833496093750    0.3821411132812500    0.7465209960937500 O
   0.7566833496093750    0.1178588867187500    0.7465209960937500 O
   0.2433166503906250    0.1178588867187500    0.2534790039062500 O
   0.2433166503906250    0.8821411132812500    0.2534790039062500 O
   0.7566833496093750    0.8821411132812500    0.7465209960937500 O
