Te2 H4 S4 O24
1.0
   8.1303913437730184    0.0000000000000000   -4.3300601262885294
  -0.0006921093028676    6.3557505094926645   -0.0004155428150791
   0.0000000000000000    0.0000000000000000    7.5871477127075195
Te H O S O
2 4 8 4 16
direct
   0.0000000000000000    0.0000000000000000    0.0000000000000000 Te
   0.5000000000000000    0.5000000000000000    0.0000000000000000 Te
   0.5432739257812500    0.0000000000000000    0.6907958984375000 H
   0.4567260742187500    0.0000000000000000    0.3092041015625000 H
   0.0432739257812500    0.5000000000000000    0.6907958984375000 H
   0.9567260742187500    0.5000000000000000    0.3092041015625000 H
   0.0409851074218750    0.0000000000000000    0.8001708984375000 O
   0.9590148925781250    0.0000000000000000    0.1998291015625000 O
   0.5409851074218750    0.5000000000000000    0.8001708984375000 O
   0.4590148925781250    0.5000000000000000    0.1998291015625000 O
   0.4452514648437500    0.0000000000000000    0.7099609375000000 O
   0.5547485351562500    0.0000000000000000    0.2900390625000000 O
   0.9452514648437500    0.5000000000000000    0.7099609375000000 O
   0.0547485351562500    0.5000000000000000    0.2900390625000000 O
   0.7326049804687500    0.0000000000000000    0.2530488967895508 S
   0.2673950195312500    0.0000000000000000    0.7469511032104492 S
   0.2326049804687500    0.5000000000000000    0.2530488967895508 S
   0.7673950195312500    0.5000000000000000    0.7469511032104492 S
   0.3197631835937500    0.6907958984375000    0.3787841796875000 O
   0.6802368164062500    0.6907958984375000    0.6212158203125000 O
   0.6802368164062500    0.3092041015625000    0.6212158203125000 O
   0.3197631835937500    0.3092041015625000    0.3787841796875000 O
   0.8197631835937500    0.1907958984375000    0.3787841796875000 O
   0.1802368164062500    0.1907958984375000    0.6212158203125000 O
   0.1802368164062500    0.8092041015625000    0.6212158203125000 O
   0.8197631835937500    0.8092041015625000    0.3787841796875000 O
   0.8453369140625000    0.7032318115234375    0.9056396484375000 O
   0.1546630859375000    0.7032318115234375    0.0943603515625000 O
   0.1546630859375000    0.2967681884765625    0.0943603515625000 O
   0.8453369140625000    0.2967681884765625    0.9056396484375000 O
   0.3453369140625000    0.2032318115234375    0.9056396484375000 O
   0.6546630859375000    0.2032318115234375    0.0943603515625000 O
   0.6546630859375000    0.7967681884765625    0.0943603515625000 O
   0.3453369140625000    0.7967681884765625    0.9056396484375000 O
