Cr6 Se8
1.0
  12.4307354327718240    0.0000000000000000   -7.2672095257315608
  -0.0004301901931837    3.7750477465033727   -0.0002468149066238
   0.0000000000000000    0.0000000000000000    6.8928499221801758
Cr Se
6 8
direct
   0.0000000000000000    0.0000000000000000    0.0000000000000000 Cr
   0.5000000000000000    0.5000000000000000    0.0000000000000000 Cr
   0.2704162597656250    0.0000000000000000    0.2785644531250000 Cr
   0.7295837402343750    0.0000000000000000    0.7214355468750000 Cr
   0.7704162597656250    0.5000000000000000    0.2785644531250000 Cr
   0.2295837402343750    0.5000000000000000    0.7214355468750000 Cr
   0.3654174804687500    0.0000000000000000    0.0270538330078125 Se
   0.6345825195312500    0.0000000000000000    0.9729461669921875 Se
   0.8654174804687500    0.5000000000000000    0.0270538330078125 Se
   0.1345825195312500    0.5000000000000000    0.9729461669921875 Se
   0.1289978027343750    0.0000000000000000    0.4347572326660156 Se
   0.8710021972656250    0.0000000000000000    0.5652427673339844 Se
   0.6289978027343750    0.5000000000000000    0.4347572326660156 Se
   0.3710021972656250    0.5000000000000000    0.5652427673339844 Se
