Bi2 I2 O2
1.0
   4.1025476368004243    0.0000000000000000   -0.0002682270459387
  -0.0002682445833585    4.1025476280308544   -0.0002682270459387
   0.0000000000000000    0.0000000000000000    7.7050518989562988
O I Bi
2 2 2
direct
   0.7500000000000000    0.2500000000000000    0.0000000000000000 O
   0.2500000000000000    0.7500000000000000    0.0000000000000000 O
   0.2500000000000000    0.2500000000000000    0.6451568603515625 I
   0.7500000000000000    0.7500000000000000    0.3548431396484375 I
   0.7500000000000000    0.7500000000000000    0.8573608398437500 Bi
   0.2500000000000000    0.2500000000000000    0.1426391601562500 Bi
