Li6 Mn4 Cr4 O16
1.0
   8.8049893409935152    0.0000000000000000   -6.0421721850768337
  -0.0007256939428725    5.8448476215949876   -0.0003821396757281
   0.0000000000000000    0.0000000000000000    5.8841505050659180
Li Mn Li Cr O
2 4 4 4 16
direct
   0.0000000000000000    0.0000000000000000    0.0000000000000000 Li
   0.5000000000000000    0.5000000000000000    0.0000000000000000 Li
   0.0000000000000000    0.0000000000000000    0.5000000000000000 Mn
   0.5000000000000000    0.5000000000000000    0.5000000000000000 Mn
   0.5000000000000000    0.0000000000000000    0.5000000000000000 Mn
   0.0000000000000000    0.5000000000000000    0.5000000000000000 Mn
   0.2500000000000000    0.2500000000000000    0.0000000000000000 Li
   0.7500000000000000    0.2500000000000000    0.0000000000000000 Li
   0.7500000000000000    0.7500000000000000    0.0000000000000000 Li
   0.2500000000000000    0.7500000000000000    0.0000000000000000 Li
   0.2500000000000000    0.2500000000000000    0.5000000000000000 Cr
   0.7500000000000000    0.2500000000000000    0.5000000000000000 Cr
   0.7500000000000000    0.7500000000000000    0.5000000000000000 Cr
   0.2500000000000000    0.7500000000000000    0.5000000000000000 Cr
   0.2280883789062500    0.0000000000000000    0.7189331054687500 O
   0.7719116210937500    0.0000000000000000    0.2810668945312500 O
   0.7280883789062500    0.5000000000000000    0.7189331054687500 O
   0.2719116210937500    0.5000000000000000    0.2810668945312500 O
   0.2677612304687500    0.0000000000000000    0.2779846191406250 O
   0.7322387695312500    0.0000000000000000    0.7220153808593750 O
   0.7677612304687500    0.5000000000000000    0.2779846191406250 O
   0.2322387695312500    0.5000000000000000    0.7220153808593750 O
   0.4783325195312500    0.2554321289062500    0.7036247253417969 O
   0.5216674804687500    0.2554321289062500    0.2963752746582031 O
   0.5216674804687500    0.7445678710937500    0.2963752746582031 O
   0.4783325195312500    0.7445678710937500    0.7036247253417969 O
   0.9783325195312500    0.7554321289062500    0.7036247253417969 O
   0.0216674804687500    0.7554321289062500    0.2963752746582031 O
   0.0216674804687500    0.2445678710937500    0.2963752746582031 O
   0.9783325195312500    0.2445678710937500    0.7036247253417969 O
