Fe6 O12
1.0
   4.7967359175153454    0.0000000000000000   -0.0335923229586254
  -0.0003097877072199    4.7051539218535501   -0.0003076258100114
   0.0000000000000000    0.0000000000000000    9.1984500885009766
O Fe
12 6
direct
   0.9600830078125000    0.2892608642578125    0.2968063354492188 O
   0.9600830078125000    0.7107391357421875    0.7968063354492188 O
   0.4815063476562500    0.7521362304687500    0.6394348144531250 O
   0.4815063476562500    0.2478637695312500    0.1394348144531250 O
   0.4746093750000000    0.7793579101562500    0.9202251434326172 O
   0.4746093750000000    0.2206420898437500    0.4202251434326172 O
   0.9217529296875000    0.7831420898437500    0.1492919921875000 O
   0.9217529296875000    0.2168579101562500    0.6492919921875000 O
   0.8947143554687500    0.7968139648437500    0.4212036132812500 O
   0.8947143554687500    0.2031860351562500    0.9212036132812500 O
   0.4166259765625000    0.7592468261718750    0.2528991699218750 O
   0.4166259765625000    0.2407531738281250    0.7528991699218750 O
   0.6666259765625000    0.0201416015625000    0.5585632324218750 Fe
   0.6666259765625000    0.9798583984375000    0.0585632324218750 Fe
   0.1654052734375000    0.9803466796875000    0.2979125976562500 Fe
   0.1654052734375000    0.0196533203125000    0.7979125976562500 Fe
   0.6732788085937500    0.4908447265625000    0.8073120117187500 Fe
   0.6732788085937500    0.5091552734375000    0.3073120117187500 Fe
