Sr1 P2 Rh2
1.0
   3.9584469710622696    0.0000000000000000   -0.0002588056572528
  -1.9789989179094616    3.4282452808434285   -0.0002588056572528
   0.0000000000000000    0.0000000000000000    7.3513479232788086
Sr P Rh
1 2 2
direct
   0.0000000000000000    0.0000000000000000    0.0000000000000000 Sr
   0.6666666865348816    0.3333333432674408    0.7015075683593750 P
   0.3333333432674408    0.6666666865348816    0.2984924316406250 P
   0.6666666865348816    0.3333333432674408    0.3651123046875000 Rh
   0.3333333432674408    0.6666666865348816    0.6348876953125000 Rh
