Te18 P6 Se18
1.0
  13.9537505805280464    0.0000000000000000   -0.0009123046529447
  -6.9760836766326673   12.0847594845824737   -0.0009123046529447
   0.0000000000000000    0.0000000000000000    6.0020503997802734
P Se Te
6 18 18
direct
   0.3333333432674408    0.6666666865348816    0.4987792968750000 P
   0.3333333134651184    0.6666666269302368    0.9987792968750000 P
   0.0000000000000000    0.0000000000000000    0.8321126699447632 P
   0.0000000000000000    0.0000000000000000    0.3321125507354736 P
   0.6666666865348816    0.3333333730697632    0.1654460430145264 P
   0.6666666269302368    0.3333333432674408    0.6654459238052368 P
   0.8991394042968750    0.8537902832031250    0.5847244262695312 Se
   0.1462097167968750    0.0453491210937500    0.5847244262695312 Se
   0.9546508789062500    0.1008605957031250    0.5847244262695312 Se
   0.1462097167968750    0.1008605957031250    0.0847244262695312 Se
   0.9546508789062500    0.8537902832031250    0.0847244262695312 Se
   0.8991394042968750    0.0453491210937500    0.0847244262695312 Se
   0.5658061504364014    0.1871236562728882    0.9180577993392944 Se
   0.8128764033317566    0.3786824643611908    0.9180577993392944 Se
   0.6213175654411316    0.4341939687728882    0.9180577993392944 Se
   0.8128764033317566    0.4341939687728882    0.4180576801300049 Se
   0.6213175654411316    0.1871236562728882    0.4180576801300049 Se
   0.5658061504364014    0.3786824643611908    0.4180576801300049 Se
   0.2324727773666382    0.5204570293426514    0.2513911724090576 Se
   0.4795430898666382    0.7120158076286316    0.2513911724090576 Se
   0.2879842221736908    0.7675272822380066    0.2513911724090576 Se
   0.4795430898666382    0.7675272822380066    0.7513910531997681 Se
   0.2879842221736908    0.5204570293426514    0.7513910531997681 Se
   0.2324727773666382    0.7120158076286316    0.7513910531997681 Se
   0.2523193359375000    0.3238525390625000    0.6961669921875000 Te
   0.6761474609375000    0.9284667968750000    0.6961669921875000 Te
   0.0715332031250000    0.7476806640625000    0.6961669921875000 Te
   0.6761474609375000    0.7476806640625000    0.1961669921875000 Te
   0.0715332031250000    0.3238525390625000    0.1961669921875000 Te
   0.2523193359375000    0.9284667968750000    0.1961669921875000 Te
   0.9189860224723816    0.6571859121322632    0.0295003652572632 Te
   0.3428141474723816    0.2618001401424408    0.0295003652572632 Te
   0.7381998896598816    0.0810140073299408    0.0295003652572632 Te
   0.3428141474723816    0.0810140073299408    0.5295002460479736 Te
   0.7381998896598816    0.6571859121322632    0.5295002460479736 Te
   0.9189860224723816    0.2618001401424408    0.5295002460479736 Te
   0.5856527090072632    0.9905192255973816    0.3628337383270264 Te
   0.0094808042049408    0.5951334834098816    0.3628337383270264 Te
   0.4048665463924408    0.4143473505973816    0.3628337383270264 Te
   0.0094808042049408    0.4143473505973816    0.8628336191177368 Te
   0.4048665463924408    0.9905192255973816    0.8628336191177368 Te
   0.5856527090072632    0.5951334834098816    0.8628336191177368 Te
