Ba8 Er4 Mo4 O24
1.0
   8.4517507372460319    0.0000000000000000   -0.0005525805752812
  -0.0005526167045146    8.4517507191796444   -0.0005525805752812
   0.0000000000000000    0.0000000000000000    8.4517507553100586
Mo Er Ba O
4 4 8 24
direct
   0.0000000000000000    0.0000000000000000    0.0000000000000000 Mo
   0.0000000000000000    0.5000000000000000    0.5000000000000000 Mo
   0.5000000000000000    0.0000000000000000    0.5000000000000000 Mo
   0.5000000000000000    0.5000000000000000    0.0000000000000000 Mo
   0.5000000000000000    0.0000000000000000    0.0000000000000000 Er
   0.0000000000000000    0.5000000000000000    0.0000000000000000 Er
   0.0000000000000000    0.0000000000000000    0.5000000000000000 Er
   0.5000000000000000    0.5000000000000000    0.5000000000000000 Er
   0.2500000000000000    0.2500000000000000    0.2500000000000000 Ba
   0.7500000000000000    0.7500000000000000    0.2500000000000000 Ba
   0.7500000000000000    0.2500000000000000    0.7500000000000000 Ba
   0.2500000000000000    0.7500000000000000    0.7500000000000000 Ba
   0.2500000000000000    0.2500000000000000    0.7500000000000000 Ba
   0.7500000000000000    0.7500000000000000    0.7500000000000000 Ba
   0.2500000000000000    0.7500000000000000    0.2500000000000000 Ba
   0.7500000000000000    0.2500000000000000    0.2500000000000000 Ba
   0.2355957031250000    0.0000000000000000    0.0000000000000000 O
   0.7644042968750000    0.0000000000000000    0.0000000000000000 O
   0.0000000000000000    0.2355957031250000    0.0000000000000000 O
   0.0000000000000000    0.7644042968750000    0.0000000000000000 O
   0.0000000000000000    0.0000000000000000    0.2355957031250000 O
   0.0000000000000000    0.0000000000000000    0.7644042968750000 O
   0.2355957031250000    0.5000000000000000    0.5000000000000000 O
   0.7644042968750000    0.5000000000000000    0.5000000000000000 O
   0.0000000000000000    0.7355957031250000    0.5000000000000000 O
   0.0000000000000000    0.2644042968750000    0.5000000000000000 O
   0.0000000000000000    0.5000000000000000    0.7355957031250000 O
   0.0000000000000000    0.5000000000000000    0.2644042968750000 O
   0.7355957031250000    0.0000000000000000    0.5000000000000000 O
   0.2644042968750000    0.0000000000000000    0.5000000000000000 O
   0.5000000000000000    0.2355957031250000    0.5000000000000000 O
   0.5000000000000000    0.7644042968750000    0.5000000000000000 O
   0.5000000000000000    0.0000000000000000    0.7355957031250000 O
   0.5000000000000000    0.0000000000000000    0.2644042968750000 O
   0.7355957031250000    0.5000000000000000    0.0000000000000000 O
   0.2644042968750000    0.5000000000000000    0.0000000000000000 O
   0.5000000000000000    0.7355957031250000    0.0000000000000000 O
   0.5000000000000000    0.2644042968750000    0.0000000000000000 O
   0.5000000000000000    0.5000000000000000    0.2355957031250000 O
   0.5000000000000000    0.5000000000000000    0.7644042968750000 O
