Ti1 V1 O1 F5
1.0
   3.3545625454033492    0.0000000000000000   -0.0928957741774615
   0.1185592737918509    5.6852382882829549   -0.1157638310456709
   0.0000000000000000    0.0000000000000000    5.5042495727539062
O F Ti V
1 5 1 1
direct
   0.6936035156250000    0.9119262695312500    0.1999511718750000 O
   0.7431640625000000    0.3056640625000000    0.4085083007812500 F
   0.3725585937500000    0.1718750000000000    0.8256835937500000 F
   0.1469726562500000    0.5028076171875000    0.0922851562500000 F
   0.7937011718750000    0.8146972656250000    0.7393798828125000 F
   0.2307128906250000    0.5679931640625000    0.5583496093750000 F
   0.7126464843750000    0.6613769531250000    0.4077148437500000 Ti
   0.8875732421875000    0.1826171875000000    0.0139770507812500 V
