K2 Li2 Fe2 Ge2 O8
1.0
   5.5959529757106026    0.0000000000000000   -0.0003658667902897
  -0.0003658907116638    5.5959529637487426   -0.0003658667902897
   0.0000000000000000    0.0000000000000000    7.9277496337890625
Ge Li K Fe O
2 2 2 2 8
direct
   0.0000000000000000    0.0000000000000000    0.0000000000000000 Ge
   0.5000000000000000    0.5000000000000000    0.5000000000000000 Ge
   0.0000000000000000    0.0000000000000000    0.5000000000000000 Li
   0.5000000000000000    0.5000000000000000    0.0000000000000000 Li
   0.0000000000000000    0.5000000000000000    0.2500000000000000 K
   0.5000000000000000    0.0000000000000000    0.7500000000000000 K
   0.5000000000000000    0.0000000000000000    0.2500000000000000 Fe
   0.0000000000000000    0.5000000000000000    0.7500000000000000 Fe
   0.7160644531250000    0.8288269042968750    0.0845947265625000 O
   0.2839355468750000    0.1711730957031250    0.0845947265625000 O
   0.8288269042968750    0.2839355468750000    0.9154052734375000 O
   0.1711730957031250    0.7160644531250000    0.9154052734375000 O
   0.2160644531250000    0.3288269042968750    0.5845947265625000 O
   0.7839355468750000    0.6711730957031250    0.5845947265625000 O
   0.3288269042968750    0.7839355468750000    0.4154052734375000 O
   0.6711730957031250    0.2160644531250000    0.4154052734375000 O
