Mn4 B4
1.0
   3.5392477436714862    0.0000000000000000   -0.0002313981582114
  -0.0003136416907391    4.7968535218217978   -0.0003136211853259
   0.0000000000000000    0.0000000000000000    5.2553515434265137
B Mn
4 4
direct
   0.0000000000000000    0.0000000000000000    0.2500000000000000 B
   0.5000000000000000    0.5000000000000000    0.7500000000000000 B
   0.0000000000000000    0.0000000000000000    0.7500000000000000 B
   0.5000000000000000    0.5000000000000000    0.2500000000000000 B
   0.0000000000000000    0.5000000000000000    0.2500000000000000 Mn
   0.5000000000000000    0.0000000000000000    0.7500000000000000 Mn
   0.0000000000000000    0.5000000000000000    0.7500000000000000 Mn
   0.5000000000000000    0.0000000000000000    0.2500000000000000 Mn
