Al1 Cr6 Ge6
1.0
   5.2291507609184009    0.0000000000000000   -0.0003418850396246
  -2.6142787242305494    4.5287486607725302   -0.0003418850396246
   0.0000000000000000    0.0000000000000000    7.9277496337890625
Al Ge Cr
1 6 6
direct
   0.0000000000000000    0.0000000000000000    0.0000000000000000 Al
   0.6666666865348816    0.3333333432674408    0.0000000000000000 Ge
   0.3333333134651184    0.6666666269302368    0.0000000000000000 Ge
   0.6666666865348816    0.3333333432674408    0.5000000000000000 Ge
   0.3333333134651184    0.6666666269302368    0.5000000000000000 Ge
   0.0000000000000000    0.0000000000000000    0.3335571289062500 Ge
   0.0000000000000000    0.0000000000000000    0.6664428710937500 Ge
   0.5000000000000000    0.0000000000000000    0.7470579147338867 Cr
   0.0000000000000000    0.5000000000000000    0.7470579147338867 Cr
   0.5000000000000000    0.5000000000000000    0.7470579147338867 Cr
   0.0000000000000000    0.5000000000000000    0.2529420852661133 Cr
   0.5000000000000000    0.0000000000000000    0.2529420852661133 Cr
   0.5000000000000000    0.5000000000000000    0.2529420852661133 Cr
