Yb2 Ti4 Bi4 Pb4 O22
1.0
   4.0108480367766886    0.0000000000000000   -0.0002622316706242
  -0.0002622488160500    4.0108480282031351   -0.0002622316706242
   0.0000000000000000    0.0000000000000000   29.8440475463867188
O Ti Yb Pb Bi O
6 4 2 4 4 16
direct
   0.5000000000000000    0.5000000000000000    0.3065490722656250 O
   0.0000000000000000    0.0000000000000000    0.8065490722656250 O
   0.0000000000000000    0.0000000000000000    0.4094848632812500 O
   0.5000000000000000    0.5000000000000000    0.9094848632812500 O
   0.0000000000000000    0.0000000000000000    0.2673950195312500 O
   0.5000000000000000    0.5000000000000000    0.7673950195312500 O
   0.0000000000000000    0.0000000000000000    0.4707031250000000 Ti
   0.5000000000000000    0.5000000000000000    0.9707031250000000 Ti
   0.5000000000000000    0.5000000000000000    0.8385620117187500 Ti
   0.0000000000000000    0.0000000000000000    0.3385620117187500 Ti
   0.0000000000000000    0.0000000000000000    0.6143188476562500 Yb
   0.5000000000000000    0.5000000000000000    0.1143188476562500 Yb
   0.0000000000000000    0.0000000000000000    0.1930236816406250 Pb
   0.5000000000000000    0.5000000000000000    0.6930236816406250 Pb
   0.5000000000000000    0.5000000000000000    0.3967437744140625 Pb
   0.0000000000000000    0.0000000000000000    0.8967437744140625 Pb
   0.0000000000000000    0.0000000000000000    0.7447967529296875 Bi
   0.5000000000000000    0.5000000000000000    0.2447967529296875 Bi
   0.5000000000000000    0.5000000000000000    0.5340728759765625 Bi
   0.0000000000000000    0.0000000000000000    0.0340728759765625 Bi
   0.0000000000000000    0.5000000000000000    0.9821166992187500 O
   0.5000000000000000    0.0000000000000000    0.9821166992187500 O
   0.5000000000000000    0.0000000000000000    0.4821166992187500 O
   0.0000000000000000    0.5000000000000000    0.4821166992187500 O
   0.0000000000000000    0.5000000000000000    0.6570434570312500 O
   0.5000000000000000    0.0000000000000000    0.6570434570312500 O
   0.5000000000000000    0.0000000000000000    0.1570434570312500 O
   0.0000000000000000    0.5000000000000000    0.1570434570312500 O
   0.0000000000000000    0.5000000000000000    0.5707473754882812 O
   0.5000000000000000    0.0000000000000000    0.5707473754882812 O
   0.5000000000000000    0.0000000000000000    0.0707473754882812 O
   0.0000000000000000    0.5000000000000000    0.0707473754882812 O
   0.0000000000000000    0.5000000000000000    0.3509521484375000 O
   0.5000000000000000    0.0000000000000000    0.3509521484375000 O
   0.5000000000000000    0.0000000000000000    0.8509521484375000 O
   0.0000000000000000    0.5000000000000000    0.8509521484375000 O
