Mn9 Ni1 Ge2
1.0
   6.6832504129619039    0.0000000000000000   -0.0004369549543940
  -3.3412460573698848    5.7880835227617151   -0.0004369549543940
   0.0000000000000000    0.0000000000000000    4.5610532760620117
Ni Ge Mn
1 2 9
direct
   0.0000000000000000    0.0000000000000000    0.5000000000000000 Ni
   0.3333333432674408    0.6666666865348816    0.0000000000000000 Ge
   0.6666666865348816    0.3333333432674408    0.0000000000000000 Ge
   0.1241455078125000    0.2482910156250000    0.0000000000000000 Mn
   0.7517089843750000    0.8758544921875000    0.0000000000000000 Mn
   0.1241455078125000    0.8758544921875000    0.0000000000000000 Mn
   0.4506835937500000    0.9013671875000000    0.5000000000000000 Mn
   0.0986328125000000    0.5493164062500000    0.5000000000000000 Mn
   0.4506835937500000    0.5493164062500000    0.5000000000000000 Mn
   0.8022460937500000    0.6044921875000000    0.5000000000000000 Mn
   0.3955078125000000    0.1977539062500000    0.5000000000000000 Mn
   0.8022460937500000    0.1977539062500000    0.5000000000000000 Mn
