Ho8 Fe16
1.0
   7.3775482020053165    0.0000000000000000   -0.0004823485637908
  -0.0004823801010627    7.3775481862351340   -0.0004823485637908
   0.0000000000000000    0.0000000000000000    7.3775482177734375
Ho Fe
8 16
direct
   0.3750000000000000    0.8750000000000000    0.8750000000000000 Ho
   0.3750000000000000    0.3750000000000000    0.3750000000000000 Ho
   0.8750000000000000    0.3750000000000000    0.8750000000000000 Ho
   0.8750000000000000    0.8750000000000000    0.3750000000000000 Ho
   0.6250000000000000    0.6250000000000000    0.6250000000000000 Ho
   0.1250000000000000    0.6250000000000000    0.1250000000000000 Ho
   0.1250000000000000    0.1250000000000000    0.6250000000000000 Ho
   0.6250000000000000    0.1250000000000000    0.1250000000000000 Ho
   0.0000000000000000    0.0000000000000000    0.0000000000000000 Fe
   0.7500000000000000    0.2500000000000000    0.5000000000000000 Fe
   0.2500000000000000    0.5000000000000000    0.7500000000000000 Fe
   0.5000000000000000    0.7500000000000000    0.2500000000000000 Fe
   0.2500000000000000    0.7500000000000000    0.5000000000000000 Fe
   0.7500000000000000    0.5000000000000000    0.2500000000000000 Fe
   0.5000000000000000    0.2500000000000000    0.7500000000000000 Fe
   0.0000000000000000    0.5000000000000000    0.5000000000000000 Fe
   0.7500000000000000    0.7500000000000000    0.0000000000000000 Fe
   0.2500000000000000    0.0000000000000000    0.2500000000000000 Fe
   0.2500000000000000    0.2500000000000000    0.0000000000000000 Fe
   0.7500000000000000    0.0000000000000000    0.7500000000000000 Fe
   0.5000000000000000    0.0000000000000000    0.5000000000000000 Fe
   0.0000000000000000    0.7500000000000000    0.7500000000000000 Fe
   0.0000000000000000    0.2500000000000000    0.2500000000000000 Fe
   0.5000000000000000    0.5000000000000000    0.0000000000000000 Fe
