Er4 Al8 Ni4
1.0
   4.2728524116744673    0.0000000000000000   -0.0002793616751296
  -0.0006536885401685    9.9975490142682837   -0.0006536458030132
   0.0000000000000000    0.0000000000000000    6.5391497611999512
Ni Er Al
4 4 8
direct
   0.5000000000000000    0.7130126953125000    0.2500000000000000 Ni
   0.5000000000000000    0.2869873046875000    0.7500000000000000 Ni
   0.0000000000000000    0.2130126953125000    0.2500000000000000 Ni
   0.0000000000000000    0.7869873046875000    0.7500000000000000 Ni
   0.0000000000000000    0.9354553222656250    0.2500000000000000 Er
   0.0000000000000000    0.0645446777343750    0.7500000000000000 Er
   0.5000000000000000    0.4354553222656250    0.2500000000000000 Er
   0.5000000000000000    0.5645446777343750    0.7500000000000000 Er
   0.0000000000000000    0.3553314208984375    0.9545288085937500 Al
   0.0000000000000000    0.6446685791015625    0.4545288085937500 Al
   0.0000000000000000    0.3553314208984375    0.5454711914062500 Al
   0.0000000000000000    0.6446685791015625    0.0454711914062500 Al
   0.5000000000000000    0.8553314208984375    0.9545288085937500 Al
   0.5000000000000000    0.1446685791015625    0.4545288085937500 Al
   0.5000000000000000    0.8553314208984375    0.5454711914062500 Al
   0.5000000000000000    0.1446685791015625    0.0454711914062500 Al
