Yb8 O12
1.0
   5.9496497980747591    0.0000000000000000   -0.0003889917024710
  -0.0005577560138081    8.5303516023275208   -0.0005577195485745
   0.0000000000000000    0.0000000000000000    5.8055491447448730
Yb O Yb O
4 4 4 8
direct
   0.5000000000000000    0.0000000000000000    0.0000000000000000 Yb
   0.0000000000000000    0.0000000000000000    0.5000000000000000 Yb
   0.5000000000000000    0.5000000000000000    0.0000000000000000 Yb
   0.0000000000000000    0.5000000000000000    0.5000000000000000 Yb
   0.9183349609375000    0.2500000000000000    0.3633422851562500 O
   0.5816650390625000    0.7500000000000000    0.8633422851562500 O
   0.0816650390625000    0.7500000000000000    0.6366577148437500 O
   0.4183349609375000    0.2500000000000000    0.1366577148437500 O
   0.5497131347656250    0.2500000000000000    0.5096588134765625 Yb
   0.9502868652343750    0.7500000000000000    0.0096588134765625 Yb
   0.4502868652343750    0.7500000000000000    0.4903411865234375 Yb
   0.0497131347656250    0.2500000000000000    0.9903411865234375 Yb
   0.6758422851562500    0.9263000488281250    0.3199462890625000 O
   0.8241577148437500    0.0736999511718750    0.8199462890625000 O
   0.3241577148437500    0.4263000488281250    0.6800537109375000 O
   0.1758422851562500    0.5736999511718750    0.1800537109375000 O
   0.3241577148437500    0.0736999511718750    0.6800537109375000 O
   0.1758422851562500    0.9263000488281250    0.1800537109375000 O
   0.6758422851562500    0.5736999511718750    0.3199462890625000 O
   0.8241577148437500    0.4263000488281250    0.8199462890625000 O
