Dy8 Np4 In20
1.0
  10.0761470579319052    0.0000000000000000   -0.0006587845892511
  -0.0005483340403039    8.3862514137345503   -0.0005482981910645
   0.0000000000000000    0.0000000000000000   10.6001482009887695
In Np Dy In
4 4 8 16
direct
   0.5000000000000000    0.5190429687500000    0.2500000000000000 In
   0.5000000000000000    0.4809570312500000    0.7500000000000000 In
   0.0000000000000000    0.0190429687500000    0.2500000000000000 In
   0.0000000000000000    0.9809570312500000    0.7500000000000000 In
   0.5000000000000000    0.1275634765625000    0.2500000000000000 Np
   0.5000000000000000    0.8724365234375000    0.7500000000000000 Np
   0.0000000000000000    0.6275634765625000    0.2500000000000000 Np
   0.0000000000000000    0.3724365234375000    0.7500000000000000 Np
   0.7975463867187500    0.0000000000000000    0.0000000000000000 Dy
   0.2024536132812500    0.0000000000000000    0.5000000000000000 Dy
   0.2024536132812500    0.0000000000000000    0.0000000000000000 Dy
   0.7975463867187500    0.0000000000000000    0.5000000000000000 Dy
   0.2975463867187500    0.5000000000000000    0.0000000000000000 Dy
   0.7024536132812500    0.5000000000000000    0.5000000000000000 Dy
   0.7024536132812500    0.5000000000000000    0.0000000000000000 Dy
   0.2975463867187500    0.5000000000000000    0.5000000000000000 Dy
   0.0000000000000000    0.6932678222656250    0.5465087890625000 In
   0.0000000000000000    0.3067321777343750    0.0465087890625000 In
   0.0000000000000000    0.6932678222656250    0.9534912109375000 In
   0.0000000000000000    0.3067321777343750    0.4534912109375000 In
   0.5000000000000000    0.1932678222656250    0.5465087890625000 In
   0.5000000000000000    0.8067321777343750    0.0465087890625000 In
   0.5000000000000000    0.1932678222656250    0.9534912109375000 In
   0.5000000000000000    0.8067321777343750    0.4534912109375000 In
   0.2189331054687500    0.2902069091796875    0.2500000000000000 In
   0.7810668945312500    0.7097930908203125    0.7500000000000000 In
   0.7810668945312500    0.2902069091796875    0.2500000000000000 In
   0.2189331054687500    0.7097930908203125    0.7500000000000000 In
   0.7189331054687500    0.7902069091796875    0.2500000000000000 In
   0.2810668945312500    0.2097930908203125    0.7500000000000000 In
   0.2810668945312500    0.7902069091796875    0.2500000000000000 In
   0.7189331054687500    0.2097930908203125    0.7500000000000000 In
