Sm2 Br2 O2
1.0
   3.9060501968822656    0.0000000000000000   -0.0002553799244645
  -0.0002553966219043    3.9060501885327272   -0.0002553799244645
   0.0000000000000000    0.0000000000000000    8.5041522979736328
O Br Sm
2 2 2
direct
   0.7500000000000000    0.2500000000000000    0.0000000000000000 O
   0.2500000000000000    0.7500000000000000    0.0000000000000000 O
   0.2500000000000000    0.2500000000000000    0.6636962890625000 Br
   0.7500000000000000    0.7500000000000000    0.3363037109375000 Br
   0.2500000000000000    0.2500000000000000    0.1338081359863281 Sm
   0.7500000000000000    0.7500000000000000    0.8661918640136719 Sm
