Mn6 O4 F9
1.0
   5.0325349671408741    0.0000000000000000   -0.0345855700773865
  -0.0002148837237794    3.2641489365272229   -0.0002134120322680
   0.0000000000000000    0.0000000000000000   14.0192499160766602
O F Mn O F Mn
3 4 4 1 5 2
direct
   0.3675537109375000    0.0000000000000000    0.9728698730468750 O
   0.9660644531250000    0.0000000000000000    0.3958740234375000 O
   0.3610839843750000    0.0000000000000000    0.7183532714843750 O
   0.2736816406250000    0.0000000000000000    0.2177124023437500 F
   0.9769287109375000    0.0000000000000000    0.8416748046875000 F
   0.6959228515625000    0.0000000000000000    0.0948486328125000 F
   0.7379150390625000    0.0000000000000000    0.5650634765625000 F
   0.0404052734375000    0.0000000000000000    0.6442871093750000 Mn
   0.0258789062500000    0.0000000000000000    0.0220947265625000 Mn
   0.3082046508789062    0.0000000000000000    0.3458251953125000 Mn
   0.6250534057617188    0.0000000000000000    0.7875366210937500 Mn
   0.4873046875000000    0.5000000000000000    0.3935546875000000 O
   0.8740234375000000    0.5000000000000000    0.9645996093750000 F
   0.4946289062500000    0.5000000000000000    0.8449707031250000 F
   0.1394042968750000    0.5000000000000000    0.5646972656250000 F
   0.8164062500000000    0.5000000000000000    0.7052001953125000 F
   0.1452636718750000    0.5000000000000000    0.0887451171875000 F
   0.8105468750000000    0.5000000000000000    0.4537353515625000 Mn
   0.5177612304687500    0.5000000000000000    0.0236816406250000 Mn
