Nd1 Ni5
1.0
   5.4387507322416608    0.0000000000000000   -0.0003555888125272
  -2.7190668190250271    4.7102744252470394   -0.0003555888125272
   0.0000000000000000    0.0000000000000000    2.9890501499176025
Nd Ni
1 5
direct
   0.0000000000000000    0.0000000000000000    0.0000000000000000 Nd
   0.6666666865348816    0.3333333432674408    0.0000000000000000 Ni
   0.3333333134651184    0.6666666269302368    0.0000000000000000 Ni
   0.5000000000000000    0.0000000000000000    0.5000000000000000 Ni
   0.0000000000000000    0.5000000000000000    0.5000000000000000 Ni
   0.5000000000000000    0.5000000000000000    0.5000000000000000 Ni
