Nb16 Ir8
1.0
   8.4255542575046594    0.0000000000000000   -0.0005508678335906
  -0.0003556120618989    5.4387507206158352   -0.0003555888125272
   0.0000000000000000    0.0000000000000000    9.1722526550292969
Nb Ir Nb Ir
4 4 12 4
direct
   0.0000000000000000    0.0000000000000000    0.1421508789062500 Nb
   0.5000000000000000    0.0000000000000000    0.1421508789062500 Nb
   0.0000000000000000    0.5000000000000000    0.6421508789062500 Nb
   0.5000000000000000    0.5000000000000000    0.6421508789062500 Nb
   0.0000000000000000    0.5000000000000000    0.0066223144531250 Ir
   0.5000000000000000    0.5000000000000000    0.0066223144531250 Ir
   0.0000000000000000    0.0000000000000000    0.5066223144531250 Ir
   0.5000000000000000    0.0000000000000000    0.5066223144531250 Ir
   0.2500000000000000    0.6471557617187500    0.4222412109375000 Nb
   0.7500000000000000    0.3528442382812500    0.4222412109375000 Nb
   0.2500000000000000    0.1471557617187500    0.9222412109375000 Nb
   0.7500000000000000    0.8528442382812500    0.9222412109375000 Nb
   0.2500000000000000    0.6140747070312500    0.8621215820312500 Nb
   0.7500000000000000    0.3859252929687500    0.8621215820312500 Nb
   0.2500000000000000    0.1140747070312500    0.3621215820312500 Nb
   0.7500000000000000    0.8859252929687500    0.3621215820312500 Nb
   0.2500000000000000    0.3792114257812500    0.1644363403320312 Nb
   0.7500000000000000    0.6207885742187500    0.1644363403320312 Nb
   0.2500000000000000    0.8792114257812500    0.6644363403320312 Nb
   0.7500000000000000    0.1207885742187500    0.6644363403320312 Nb
   0.2500000000000000    0.3056030273437500    0.6114501953125000 Ir
   0.7500000000000000    0.6943969726562500    0.6114501953125000 Ir
   0.2500000000000000    0.8056030273437500    0.1114501953125000 Ir
   0.7500000000000000    0.1943969726562500    0.1114501953125000 Ir
