Pr2 In2 Sn2 Au2
1.0
   4.7968535320755095    0.0000000000000000   -0.0003136211853259
  -0.0003136416907391    4.7968535218217978   -0.0003136211853259
   0.0000000000000000    0.0000000000000000   10.5084486007690430
Au In Sn Pr
2 2 2 2
direct
   0.7500000000000000    0.2500000000000000    0.0000000000000000 Au
   0.2500000000000000    0.7500000000000000    0.0000000000000000 Au
   0.7500000000000000    0.2500000000000000    0.5000000000000000 In
   0.2500000000000000    0.7500000000000000    0.5000000000000000 In
   0.7500000000000000    0.7500000000000000    0.8215637207031250 Sn
   0.2500000000000000    0.2500000000000000    0.1784362792968750 Sn
   0.7500000000000000    0.7500000000000000    0.2401123046875000 Pr
   0.2500000000000000    0.2500000000000000    0.7598876953125000 Pr
