Gd6 Al6 Fe45
1.0
   8.4386482058409307    0.0000000000000000   -0.0005517239238528
  -4.2188453679085844    7.3083600967398050   -0.0005517239238528
   0.0000000000000000    0.0000000000000000   11.9494457244873047
Al Gd Fe
6 6 45
direct
   0.3333333432674408    0.6666666865348816    0.5612487792968750 Al
   0.6666666865348816    0.3333333432674408    0.4387512207031250 Al
   0.0000000000000000    0.0000000000000000    0.8945821523666382 Al
   0.3333333730697632    0.6666666865348816    0.7720845937728882 Al
   0.6666666865348816    0.3333333730697632    0.2279155254364014 Al
   0.0000000000000000    0.0000000000000000    0.1054179072380066 Al
   0.0000000000000000    0.0000000000000000    0.3518066406250000 Gd
   0.0000000000000000    0.0000000000000000    0.6481933593750000 Gd
   0.6666666865348816    0.3333333432674408    0.6851400136947632 Gd
   0.6666666865348816    0.3333333432674408    0.9815267324447632 Gd
   0.3333333432674408    0.6666666865348816    0.0184733867645264 Gd
   0.3333333432674408    0.6666666865348816    0.3148600459098816 Gd
   0.3333333432674408    0.1666666716337204    0.1666666716337204 Fe
   0.8333333134651184    0.1666666716337204    0.1666666716337204 Fe
   0.8333333134651184    0.6666666269302368    0.1666666716337204 Fe
   0.1666666716337204    0.3333333432674408    0.8333333134651184 Fe
   0.1666666716337204    0.8333333134651184    0.8333333134651184 Fe
   0.6666666269302368    0.8333333134651184    0.8333333134651184 Fe
   0.0000000000000000    0.5000000000000000    0.5000000000000000 Fe
   0.5000000000000000    0.5000000000000000    0.5000000000000000 Fe
   0.5000000000000000    0.0000000000000000    0.5000000000000000 Fe
   0.7083740234375000    0.7083740234375000    0.0000000000000000 Fe
   0.2916259765625000    0.0000000000000000    0.0000000000000000 Fe
   0.0000000000000000    0.2916259765625000    0.0000000000000000 Fe
   0.2916259765625000    0.2916259765625000    0.0000000000000000 Fe
   0.7083740234375000    0.0000000000000000    0.0000000000000000 Fe
   0.0000000000000000    0.7083740234375000    0.0000000000000000 Fe
   0.3750407695770264    0.0417073965072632    0.3333333432674408 Fe
   0.9582926630973816    0.3333333432674408    0.3333333432674408 Fe
   0.6666666865348816    0.6249593496322632    0.3333333432674408 Fe
   0.9582926630973816    0.6249593496322632    0.3333333432674408 Fe
   0.3750407695770264    0.3333333432674408    0.3333333432674408 Fe
   0.6666666865348816    0.0417073965072632    0.3333333432674408 Fe
   0.0417073965072632    0.3750407695770264    0.6666666865348816 Fe
   0.6249593496322632    0.6666666865348816    0.6666666865348816 Fe
   0.3333333432674408    0.9582926630973816    0.6666666865348816 Fe
   0.6249593496322632    0.9582926630973816    0.6666666865348816 Fe
   0.0417073965072632    0.6666666865348816    0.6666666865348816 Fe
   0.3333333432674408    0.3750407695770264    0.6666666865348816 Fe
   0.5021018981933594    0.0042037963867188    0.1588134765625000 Fe
   0.9957962036132812    0.4978981018066406    0.1588134765625000 Fe
   0.5021018981933594    0.4978981018066406    0.1588134765625000 Fe
   0.0042037963867188    0.5021018981933594    0.8411865234375000 Fe
   0.4978981018066406    0.9957962036132812    0.8411865234375000 Fe
   0.4978981018066406    0.5021018981933594    0.8411865234375000 Fe
   0.1687686443328857    0.3375371396541595    0.4921468198299408 Fe
   0.6624628901481628    0.8312314748764038    0.4921468198299408 Fe
   0.1687685847282410    0.8312314748764038    0.4921468198299408 Fe
   0.6708704829216003    0.8354352712631226    0.1745198667049408 Fe
   0.1645648479461670    0.3291295468807220    0.1745198667049408 Fe
   0.1645647883415222    0.8354352712631226    0.1745198667049408 Fe
   0.8354352712631226    0.6708704829216003    0.8254801630973816 Fe
   0.3291295468807220    0.1645648479461670    0.8254801630973816 Fe
   0.8354352712631226    0.1645647883415222    0.8254801630973816 Fe
   0.3375371396541595    0.1687686443328857    0.5078532099723816 Fe
   0.8312314748764038    0.6624628901481628    0.5078532099723816 Fe
   0.8312314748764038    0.1687685847282410    0.5078532099723816 Fe
