Cs4 Er4 Zn4 Te12
1.0
   4.1549482256776855    0.0000000000000000   -0.0002716530281342
  -0.0009466260521019   14.4777516699815738   -0.0009465641631409
   0.0000000000000000    0.0000000000000000   16.9274520874023438
Er Zn Te Cs Te
4 4 4 4 8
direct
   0.0000000000000000    0.0000000000000000    0.0000000000000000 Er
   0.0000000000000000    0.0000000000000000    0.5000000000000000 Er
   0.5000000000000000    0.5000000000000000    0.0000000000000000 Er
   0.5000000000000000    0.5000000000000000    0.5000000000000000 Er
   0.0000000000000000    0.5540771484375000    0.2500000000000000 Zn
   0.0000000000000000    0.4459228515625000    0.7500000000000000 Zn
   0.5000000000000000    0.0540771484375000    0.2500000000000000 Zn
   0.5000000000000000    0.9459228515625000    0.7500000000000000 Zn
   0.5000000000000000    0.4526367187500000    0.2500000000000000 Te
   0.5000000000000000    0.5473632812500000    0.7500000000000000 Te
   0.0000000000000000    0.9526367187500000    0.2500000000000000 Te
   0.0000000000000000    0.0473632812500000    0.7500000000000000 Te
   0.5000000000000000    0.7554016113281250    0.2500000000000000 Cs
   0.5000000000000000    0.2445983886718750    0.7500000000000000 Cs
   0.0000000000000000    0.2554016113281250    0.2500000000000000 Cs
   0.0000000000000000    0.7445983886718750    0.7500000000000000 Cs
   0.0000000000000000    0.6268100738525391    0.4161071777343750 Te
   0.0000000000000000    0.3731899261474609    0.9161071777343750 Te
   0.0000000000000000    0.6268100738525391    0.0838928222656250 Te
   0.0000000000000000    0.3731899261474609    0.5838928222656250 Te
   0.5000000000000000    0.1268100738525391    0.4161071777343750 Te
   0.5000000000000000    0.8731899261474609    0.9161071777343750 Te
   0.5000000000000000    0.1268100738525391    0.0838928222656250 Te
   0.5000000000000000    0.8731899261474609    0.5838928222656250 Te
