Ge6 Sb12 Te15
1.0
   4.2073492913921040    0.0000000000000000   -0.0002750790415056
  -2.1034359575360679    3.6438091651899067   -0.0002750790415056
   0.0000000000000000    0.0000000000000000   63.4717483520507812
Ge Sb Te
6 12 15
direct
   0.3333333432674408    0.6666666865348816    0.6687011718750000 Ge
   0.0000000000000000    0.0000000000000000    0.0020345449447632 Ge
   0.6666666865348816    0.3333333730697632    0.3353679180145264 Ge
   0.3333333432674408    0.6666666865348816    0.2531433105468750 Ge
   0.0000000000000000    0.0000000000000000    0.5864766836166382 Ge
   0.6666666865348816    0.3333333730697632    0.9198099970817566 Ge
   0.6666666865348816    0.3333333432674408    0.0686340332031250 Sb
   0.3333333730697632    0.6666666865348816    0.4019673764705658 Sb
   0.0000000000000000    0.0000000000000000    0.7353007197380066 Sb
   0.0000000000000000    0.0000000000000000    0.8296508789062500 Sb
   0.6666666865348816    0.3333333432674408    0.1629842519760132 Sb
   0.3333333432674408    0.6666666865348816    0.4963176250457764 Sb
   0.0000000000000000    0.0000000000000000    0.3709945678710938 Sb
   0.6666666865348816    0.3333333432674408    0.7043279409408569 Sb
   0.3333333432674408    0.6666666865348816    0.0376613140106201 Sb
   0.3333333432674408    0.6666666865348816    0.8544311523437500 Sb
   0.0000000000000000    0.0000000000000000    0.1877645254135132 Sb
   0.6666666865348816    0.3333333730697632    0.5210978984832764 Sb
   0.6666666865348816    0.3333333432674408    0.9858703613281250 Te
   0.3333333730697632    0.6666666865348816    0.3192037343978882 Te
   0.0000000000000000    0.0000000000000000    0.6525371074676514 Te
   0.6666666865348816    0.3333333432674408    0.8004150390625000 Te
   0.3333333730697632    0.6666666865348816    0.1337484121322632 Te
   0.0000000000000000    0.0000000000000000    0.4670817852020264 Te
   0.3333333432674408    0.6666666865348816    0.5556335449218750 Te
   0.0000000000000000    0.0000000000000000    0.8889669179916382 Te
   0.6666666865348816    0.3333333730697632    0.2223002910614014 Te
   0.0000000000000000    0.0000000000000000    0.0944213867187500 Te
   0.6666666865348816    0.3333333432674408    0.4277547299861908 Te
   0.3333333432674408    0.6666666865348816    0.7610880732536316 Te
   0.0000000000000000    0.0000000000000000    0.2752532958984375 Te
   0.6666666865348816    0.3333333432674408    0.6085866689682007 Te
   0.3333333432674408    0.6666666865348816    0.9419199824333191 Te
