Li4 Si2 Te2 Rh1 O11
1.0
   4.6131517307904160    0.0000000000000000    0.0528400737563206
   0.0861193023227843    5.7853344366257327    0.4763295017188968
   0.0000000000000000    0.0000000000000000    7.8753490447998047
Li O Si Rh Te
4 11 2 1 2
direct
   0.2345581054687500    0.6850585937500000    0.3574218750000000 Li
   0.2236938476562500    0.0654296875000000    0.5340576171875000 Li
   0.2331542968750000    0.7397460937500000    0.8891601562500000 Li
   0.7151794433593750    0.2465820312500000    0.3847656250000000 Li
   0.5388183593750000    0.1849212646484375    0.1075439453125000 O
   0.0026855468750000    0.4022827148437500    0.9257812500000000 O
   0.5324707031250000    0.8820800781250000    0.4221191406250000 O
   0.0080566406250000    0.7263183593750000    0.6135253906250000 O
   0.8791503906250000    0.9276123046875000    0.9545898437500000 O
   0.8547363281250000    0.5749511718750000    0.3250732421875000 O
   0.8444824218750000    0.2618560791015625    0.6379394531250000 O
   0.4047851562500000    0.4125061035156250    0.4874267578125000 O
   0.0449218750000000    0.0395507812500000    0.2706298828125000 O
   0.4069824218750000    0.7304077148437500    0.0954589843750000 O
   0.3574218750000000    0.1118164062500000    0.8026123046875000 O
   0.7258300781250000    0.5852050781250000    0.5297241210937500 Si
   0.7272949218750000    0.1953125000000000    0.8350219726562500 Si
   0.2147216796875000    0.4458007812500000    0.6862792968750000 Rh
   0.7100830078125000    0.8561401367187500    0.2043457031250000 Te
   0.1831054687500000    0.1352539062500000    0.0360717773437500 Te
