Pr4 Ho4 Al16 Ag4
1.0
   6.5653500416623798    0.0000000000000000   -0.0004292465568058
  -0.0004292746221229    6.5653500276283454   -0.0004292465568058
   0.0000000000000000    0.0000000000000000   13.6786518096923828
Ho Ag Pr Al
4 4 4 16
direct
   0.0000000000000000    0.5000000000000000    0.0000000000000000 Ho
   0.5000000000000000    0.0000000000000000    0.0000000000000000 Ho
   0.5000000000000000    0.0000000000000000    0.5000000000000000 Ho
   0.0000000000000000    0.5000000000000000    0.5000000000000000 Ho
   0.0000000000000000    0.5000000000000000    0.2500000000000000 Ag
   0.5000000000000000    0.0000000000000000    0.2500000000000000 Ag
   0.0000000000000000    0.5000000000000000    0.7500000000000000 Ag
   0.5000000000000000    0.0000000000000000    0.7500000000000000 Ag
   0.0000000000000000    0.0000000000000000    0.1533203125000000 Pr
   0.0000000000000000    0.0000000000000000    0.8466796875000000 Pr
   0.5000000000000000    0.5000000000000000    0.6533203125000000 Pr
   0.5000000000000000    0.5000000000000000    0.3466796875000000 Pr
   0.6967163085937500    0.6967163085937500    0.1457519531250000 Al
   0.3032836914062500    0.3032836914062500    0.1457519531250000 Al
   0.3032836914062500    0.6967163085937500    0.1457519531250000 Al
   0.6967163085937500    0.3032836914062500    0.1457519531250000 Al
   0.3032836914062500    0.6967163085937500    0.8542480468750000 Al
   0.6967163085937500    0.3032836914062500    0.8542480468750000 Al
   0.6967163085937500    0.6967163085937500    0.8542480468750000 Al
   0.3032836914062500    0.3032836914062500    0.8542480468750000 Al
   0.1967163085937500    0.1967163085937500    0.6457519531250000 Al
   0.8032836914062500    0.8032836914062500    0.6457519531250000 Al
   0.8032836914062500    0.1967163085937500    0.6457519531250000 Al
   0.1967163085937500    0.8032836914062500    0.6457519531250000 Al
   0.8032836914062500    0.1967163085937500    0.3542480468750000 Al
   0.1967163085937500    0.8032836914062500    0.3542480468750000 Al
   0.1967163085937500    0.1967163085937500    0.3542480468750000 Al
   0.8032836914062500    0.8032836914062500    0.3542480468750000 Al
