Zr1 Sn1 Te2
1.0
   5.3863496665272423    0.0000000000000000   -0.0003521627991557
  -0.0003521858245253    5.3863496550134284   -0.0003521627991557
   0.0000000000000000    0.0000000000000000    4.7968535423278809
Zr Te Sn Te
1 1 1 1
direct
   0.0000000000000000    0.0000000000000000    0.0000000000000000 Zr
   0.0000000000000000    0.0000000000000000    0.5000000000000000 Te
   0.5000000000000000    0.5000000000000000    0.0000000000000000 Sn
   0.5000000000000000    0.5000000000000000    0.5000000000000000 Te
