Rb12 Zr4 O12
1.0
   6.2509456380512667    0.0000000000000000   -0.0094098794143546
  -0.0009574256994398   14.6218518584843995   -0.0009559855206510
   0.0000000000000000    0.0000000000000000    7.1417522430419922
Rb O Rb Zr O
8 4 4 4 8
direct
   0.0000000000000000    0.1871795654296875    0.5000000000000000 Rb
   0.0000000000000000    0.8128204345703125    0.5000000000000000 Rb
   0.5000000000000000    0.6871795654296875    0.5000000000000000 Rb
   0.5000000000000000    0.3128204345703125    0.5000000000000000 Rb
   0.5000000000000000    0.8927917480468750    0.5000000000000000 Rb
   0.5000000000000000    0.1072082519531250    0.5000000000000000 Rb
   0.0000000000000000    0.3927917480468750    0.5000000000000000 Rb
   0.0000000000000000    0.6072082519531250    0.5000000000000000 Rb
   0.1451110839843750    0.0000000000000000    0.4043884277343750 O
   0.8548889160156250    0.0000000000000000    0.5956115722656250 O
   0.6451110839843750    0.5000000000000000    0.4043884277343750 O
   0.3548889160156250    0.5000000000000000    0.5956115722656250 O
   0.3274993896484375    0.0000000000000000    0.0989990234375000 Rb
   0.6725006103515625    0.0000000000000000    0.9010009765625000 Rb
   0.8274993896484375    0.5000000000000000    0.0989990234375000 Rb
   0.1725006103515625    0.5000000000000000    0.9010009765625000 Rb
   0.8629150390625000    0.0000000000000000    0.3000488281250000 Zr
   0.1370849609375000    0.0000000000000000    0.6999511718750000 Zr
   0.3629150390625000    0.5000000000000000    0.3000488281250000 Zr
   0.6370849609375000    0.5000000000000000    0.6999511718750000 Zr
   0.7386474609375000    0.8796386718750000    0.2056884765625000 O
   0.2613525390625000    0.8796386718750000    0.7943115234375000 O
   0.2613525390625000    0.1203613281250000    0.7943115234375000 O
   0.7386474609375000    0.1203613281250000    0.2056884765625000 O
   0.2386474609375000    0.3796386718750000    0.2056884765625000 O
   0.7613525390625000    0.3796386718750000    0.7943115234375000 O
   0.7613525390625000    0.6203613281250000    0.7943115234375000 O
   0.2386474609375000    0.6203613281250000    0.2056884765625000 O
