Pt21
1.0
   5.0064492118643544    0.0000000000000000   -0.0003273246776454
  -2.5029405838394840    4.3358761680595173   -0.0003273246776454
   0.0000000000000000    0.0000000000000000   23.9359512329101562
Pt
21
direct
   0.0000000000000000    0.0000000000000000    0.0000000000000000 Pt
   0.6666666865348816    0.3333333432674408    0.3333333432674408 Pt
   0.3333333432674408    0.6666666865348816    0.6666666865348816 Pt
   0.6666666865348816    0.3333333432674408    0.1695709228515625 Pt
   0.3333333432674408    0.6666666865348816    0.8304290771484375 Pt
   0.3333333730697632    0.6666666865348816    0.5029042959213257 Pt
   0.0000000000000000    0.0000000000000000    0.1637624204158783 Pt
   0.0000000000000000    0.0000000000000000    0.8362376093864441 Pt
   0.6666666865348816    0.3333333730697632    0.4970957636833191 Pt
   0.0000000000000000    0.0000000000000000    0.5578918457031250 Pt
   0.0000000000000000    0.0000000000000000    0.4421081542968750 Pt
   0.6666666865348816    0.3333333432674408    0.8912252187728882 Pt
   0.6666666865348816    0.3333333432674408    0.7754415273666382 Pt
   0.3333333432674408    0.6666666865348816    0.2245585918426514 Pt
   0.3333333432674408    0.6666666865348816    0.1087748408317566 Pt
   0.3333333432674408    0.6666666865348816    0.3624267578125000 Pt
   0.6666666865348816    0.3333333432674408    0.6375732421875000 Pt
   0.0000000000000000    0.0000000000000000    0.6957601308822632 Pt
   0.3333333730697632    0.6666666865348816    0.9709066152572632 Pt
   0.6666666865348816    0.3333333730697632    0.0290935039520264 Pt
   0.0000000000000000    0.0000000000000000    0.3042399287223816 Pt
