Sr8 Sn8 O18
1.0
   9.2377490799874948    0.0000000000000000   -0.0006039696223443
  -0.0006040091115346    9.2377490602409633   -0.0006039696223443
   0.0000000000000000    0.0000000000000000    5.8579502105712891
O Sn Sr O
2 8 8 16
direct
   0.0000000000000000    0.0000000000000000    0.0000000000000000 O
   0.5000000000000000    0.5000000000000000    0.5000000000000000 O
   0.2500000000000000    0.2500000000000000    0.2500000000000000 Sn
   0.7500000000000000    0.7500000000000000    0.2500000000000000 Sn
   0.7500000000000000    0.2500000000000000    0.2500000000000000 Sn
   0.2500000000000000    0.7500000000000000    0.2500000000000000 Sn
   0.7500000000000000    0.2500000000000000    0.7500000000000000 Sn
   0.2500000000000000    0.7500000000000000    0.7500000000000000 Sn
   0.2500000000000000    0.2500000000000000    0.7500000000000000 Sn
   0.7500000000000000    0.7500000000000000    0.7500000000000000 Sn
   0.0000000000000000    0.6093750000000000    0.0000000000000000 Sr
   0.0000000000000000    0.3906250000000000    0.0000000000000000 Sr
   0.3906250000000000    0.0000000000000000    0.0000000000000000 Sr
   0.6093750000000000    0.0000000000000000    0.0000000000000000 Sr
   0.5000000000000000    0.1093750000000000    0.5000000000000000 Sr
   0.5000000000000000    0.8906250000000000    0.5000000000000000 Sr
   0.8906250000000000    0.5000000000000000    0.5000000000000000 Sr
   0.1093750000000000    0.5000000000000000    0.5000000000000000 Sr
   0.0000000000000000    0.2678527832031250    0.7253417968750000 O
   0.0000000000000000    0.7321472167968750    0.7253417968750000 O
   0.7321472167968750    0.0000000000000000    0.7253417968750000 O
   0.2678527832031250    0.0000000000000000    0.7253417968750000 O
   0.0000000000000000    0.2678527832031250    0.2746582031250000 O
   0.0000000000000000    0.7321472167968750    0.2746582031250000 O
   0.2678527832031250    0.0000000000000000    0.2746582031250000 O
   0.7321472167968750    0.0000000000000000    0.2746582031250000 O
   0.5000000000000000    0.7678527832031250    0.2253417968750000 O
   0.5000000000000000    0.2321472167968750    0.2253417968750000 O
   0.2321472167968750    0.5000000000000000    0.2253417968750000 O
   0.7678527832031250    0.5000000000000000    0.2253417968750000 O
   0.5000000000000000    0.7678527832031250    0.7746582031250000 O
   0.5000000000000000    0.2321472167968750    0.7746582031250000 O
   0.7678527832031250    0.5000000000000000    0.7746582031250000 O
   0.2321472167968750    0.5000000000000000    0.7746582031250000 O
