K2 Rb4 Nb4 Ru2 O12
1.0
   5.2029491295481032    0.0000000000000000   -0.0037453562868125
  -0.0005829769582672    8.9102487182932961   -0.0005825574518535
   0.0000000000000000    0.0000000000000000    9.7486476898193359
Ru K O Rb Nb O
2 2 4 4 4 8
direct
   0.0000000000000000    0.0000000000000000    0.0000000000000000 Ru
   0.5000000000000000    0.5000000000000000    0.0000000000000000 Ru
   0.5000000000000000    0.0000000000000000    0.5000000000000000 K
   0.0000000000000000    0.5000000000000000    0.5000000000000000 K
   0.8187866210937500    0.0000000000000000    0.4097595214843750 O
   0.1812133789062500    0.0000000000000000    0.5902404785156250 O
   0.3187866210937500    0.5000000000000000    0.4097595214843750 O
   0.6812133789062500    0.5000000000000000    0.5902404785156250 O
   0.4732055664062500    0.0000000000000000    0.8350830078125000 Rb
   0.5267944335937500    0.0000000000000000    0.1649169921875000 Rb
   0.9732055664062500    0.5000000000000000    0.8350830078125000 Rb
   0.0267944335937500    0.5000000000000000    0.1649169921875000 Rb
   0.9718322753906250    0.0000000000000000    0.6883544921875000 Nb
   0.0281677246093750    0.0000000000000000    0.3116455078125000 Nb
   0.4718322753906250    0.5000000000000000    0.6883544921875000 Nb
   0.5281677246093750    0.5000000000000000    0.3116455078125000 Nb
   0.5459671020507812    0.6450805664062500    0.1613311767578125 O
   0.4540328979492188    0.6450805664062500    0.8386688232421875 O
   0.4540328979492188    0.3549194335937500    0.8386688232421875 O
   0.5459671020507812    0.3549194335937500    0.1613311767578125 O
   0.0459671020507812    0.1450805664062500    0.1613311767578125 O
   0.9540328979492188    0.1450805664062500    0.8386688232421875 O
   0.9540328979492188    0.8549194335937500    0.8386688232421875 O
   0.0459671020507812    0.8549194335937500    0.1613311767578125 O
