Li6 Cr2 Co2 O10
1.0
   4.8864035796229546    0.0000000000000000   -1.1484576966928444
  -1.8144636959029461    4.9858661928088335   -1.2536182591814677
   0.0000000000000000    0.0000000000000000    7.4168510437011719
Li O Cr Co
6 10 2 2
direct
   0.4842529296875000    0.7953491210937500    0.6094970703125000 Li
   0.5157470703125000    0.2046508789062500    0.3905029296875000 Li
   0.0027465820312500    0.7386474609375000    0.0731201171875000 Li
   0.9972534179687500    0.2613525390625000    0.9268798828125000 Li
   0.4927368164062500    0.8148193359375000    0.0963134765625000 Li
   0.5072631835937500    0.1851806640625000    0.9036865234375000 Li
   0.2612609863281250    0.0912246704101562    0.0749511718750000 O
   0.7387390136718750    0.9087753295898438    0.9250488281250000 O
   0.2078857421875000    0.4084014892578125    0.4663085937500000 O
   0.7921142578125000    0.5915985107421875    0.5336914062500000 O
   0.2862548828125000    0.8141479492187500    0.3253173828125000 O
   0.7137451171875000    0.1858520507812500    0.6746826171875000 O
   0.7957153320312500    0.4423217773437500    0.1514587402343750 O
   0.2042846679687500    0.5576782226562500    0.8485412597656250 O
   0.8185577392578125    0.9978942871093750    0.3224487304687500 O
   0.1814422607421875    0.0021057128906250    0.6775512695312500 O
   0.0273895263671875    0.2593383789062500    0.6154785156250000 Cr
   0.9726104736328125    0.7406616210937500    0.3845214843750000 Cr
   0.0273132324218750    0.2329254150390625    0.2062301635742188 Co
   0.9726867675781250    0.7670745849609375    0.7937698364257812 Co
