K4 Rb8 Cu4 F24
1.0
   8.8840522576233383    0.0000000000000000   -0.0005808447101630
  -0.0005808826873831    8.8840522386328669   -0.0005808447101630
   0.0000000000000000    0.0000000000000000    8.8840522766113281
Cu K Rb F
4 4 8 24
direct
   0.0000000000000000    0.0000000000000000    0.0000000000000000 Cu
   0.0000000000000000    0.5000000000000000    0.5000000000000000 Cu
   0.5000000000000000    0.0000000000000000    0.5000000000000000 Cu
   0.5000000000000000    0.5000000000000000    0.0000000000000000 Cu
   0.5000000000000000    0.0000000000000000    0.0000000000000000 K
   0.0000000000000000    0.5000000000000000    0.0000000000000000 K
   0.0000000000000000    0.0000000000000000    0.5000000000000000 K
   0.5000000000000000    0.5000000000000000    0.5000000000000000 K
   0.2500000000000000    0.2500000000000000    0.2500000000000000 Rb
   0.7500000000000000    0.7500000000000000    0.2500000000000000 Rb
   0.7500000000000000    0.2500000000000000    0.7500000000000000 Rb
   0.2500000000000000    0.7500000000000000    0.7500000000000000 Rb
   0.2500000000000000    0.2500000000000000    0.7500000000000000 Rb
   0.7500000000000000    0.7500000000000000    0.7500000000000000 Rb
   0.2500000000000000    0.7500000000000000    0.2500000000000000 Rb
   0.7500000000000000    0.2500000000000000    0.2500000000000000 Rb
   0.7851867675781250    0.0000000000000000    0.0000000000000000 F
   0.2148132324218750    0.0000000000000000    0.0000000000000000 F
   0.0000000000000000    0.7851867675781250    0.0000000000000000 F
   0.0000000000000000    0.2148132324218750    0.0000000000000000 F
   0.0000000000000000    0.0000000000000000    0.7851867675781250 F
   0.0000000000000000    0.0000000000000000    0.2148132324218750 F
   0.7851867675781250    0.5000000000000000    0.5000000000000000 F
   0.2148132324218750    0.5000000000000000    0.5000000000000000 F
   0.0000000000000000    0.2851867675781250    0.5000000000000000 F
   0.0000000000000000    0.7148132324218750    0.5000000000000000 F
   0.0000000000000000    0.5000000000000000    0.2851867675781250 F
   0.0000000000000000    0.5000000000000000    0.7148132324218750 F
   0.2851867675781250    0.0000000000000000    0.5000000000000000 F
   0.7148132324218750    0.0000000000000000    0.5000000000000000 F
   0.5000000000000000    0.7851867675781250    0.5000000000000000 F
   0.5000000000000000    0.2148132324218750    0.5000000000000000 F
   0.5000000000000000    0.0000000000000000    0.2851867675781250 F
   0.5000000000000000    0.0000000000000000    0.7148132324218750 F
   0.2851867675781250    0.5000000000000000    0.0000000000000000 F
   0.7148132324218750    0.5000000000000000    0.0000000000000000 F
   0.5000000000000000    0.2851867675781250    0.0000000000000000 F
   0.5000000000000000    0.7148132324218750    0.0000000000000000 F
   0.5000000000000000    0.5000000000000000    0.7851867675781250 F
   0.5000000000000000    0.5000000000000000    0.2148132324218750 F
