Pb6
1.0
   3.8143505968585298    0.0000000000000000   -0.0002493845491500
  -0.0002665317296842    4.0763511483454788   -0.0002665143042481
   0.0000000000000000    0.0000000000000000   12.6568460464477539
Pb
6
direct
   0.0000000000000000    0.0000000000000000    0.0000000000000000 Pb
   0.5000000000000000    0.0000000000000000    0.5000000000000000 Pb
   0.0000000000000000    0.0000000000000000    0.6977996826171875 Pb
   0.0000000000000000    0.0000000000000000    0.3022003173828125 Pb
   0.5000000000000000    0.5000000000000000    0.1557617187500000 Pb
   0.5000000000000000    0.5000000000000000    0.8442382812500000 Pb
