Al4 Cr4 Co8
1.0
   5.7662505980272876    0.0000000000000000   -0.0003770009518420
  -0.0003770256011982    5.7662505857014006   -0.0003770009518420
   0.0000000000000000    0.0000000000000000    5.7662506103515625
Al Cr Co
4 4 8
direct
   0.0000000000000000    0.0000000000000000    0.0000000000000000 Al
   0.0000000000000000    0.5000000000000000    0.5000000000000000 Al
   0.5000000000000000    0.0000000000000000    0.5000000000000000 Al
   0.5000000000000000    0.5000000000000000    0.0000000000000000 Al
   0.5000000000000000    0.0000000000000000    0.0000000000000000 Cr
   0.0000000000000000    0.5000000000000000    0.0000000000000000 Cr
   0.0000000000000000    0.0000000000000000    0.5000000000000000 Cr
   0.5000000000000000    0.5000000000000000    0.5000000000000000 Cr
   0.2500000000000000    0.2500000000000000    0.2500000000000000 Co
   0.7500000000000000    0.7500000000000000    0.2500000000000000 Co
   0.7500000000000000    0.2500000000000000    0.7500000000000000 Co
   0.2500000000000000    0.7500000000000000    0.7500000000000000 Co
   0.2500000000000000    0.2500000000000000    0.7500000000000000 Co
   0.7500000000000000    0.7500000000000000    0.7500000000000000 Co
   0.2500000000000000    0.7500000000000000    0.2500000000000000 Co
   0.7500000000000000    0.2500000000000000    0.2500000000000000 Co
