K2 V2 S8 O12
1.0
  10.2268209326820774    0.0000000000000000   -1.9099721111078838
  -0.0003208969346667    4.0763511444282887   -0.0002665143042481
   0.0000000000000000    0.0000000000000000    7.4037485122680664
V K O S O
2 2 4 8 8
direct
   0.0000000000000000    0.0000000000000000    0.0000000000000000 V
   0.5000000000000000    0.5000000000000000    0.0000000000000000 V
   0.5000000000000000    0.0000000000000000    0.5000000000000000 K
   0.0000000000000000    0.5000000000000000    0.5000000000000000 K
   0.8612670898437500    0.0000000000000000    0.1918945312500000 O
   0.1387329101562500    0.0000000000000000    0.8081054687500000 O
   0.3612670898437500    0.5000000000000000    0.1918945312500000 O
   0.6387329101562500    0.5000000000000000    0.8081054687500000 O
   0.7596740722656250    0.0000000000000000    0.3151245117187500 S
   0.2403259277343750    0.0000000000000000    0.6848754882812500 S
   0.2596740722656250    0.5000000000000000    0.3151245117187500 S
   0.7403259277343750    0.5000000000000000    0.6848754882812500 S
   0.6826171875000000    0.0000000000000000    0.0320663452148438 S
   0.3173828125000000    0.0000000000000000    0.9679336547851562 S
   0.1826171875000000    0.5000000000000000    0.0320663452148438 S
   0.8173828125000000    0.5000000000000000    0.9679336547851562 S
   0.3587646484375000    0.2296447753906250    0.8116455078125000 O
   0.6412353515625000    0.2296447753906250    0.1883544921875000 O
   0.6412353515625000    0.7703552246093750    0.1883544921875000 O
   0.3587646484375000    0.7703552246093750    0.8116455078125000 O
   0.8587646484375000    0.7296447753906250    0.8116455078125000 O
   0.1412353515625000    0.7296447753906250    0.1883544921875000 O
   0.1412353515625000    0.2703552246093750    0.1883544921875000 O
   0.8587646484375000    0.2703552246093750    0.8116455078125000 O
