Ce2 Eu2 Ta2 O14
1.0
   5.3988135598858422    0.0000000000000000   -0.0830440122580141
  -0.0003584913208353    5.3994521860315041   -0.0003530194505841
   0.0000000000000000    0.0000000000000000   10.4822521209716797
O Ce Eu Ta
14 2 2 2
direct
   0.3923339843750000    0.0887451171875000    0.5078735351562500 O
   0.3923339843750000    0.9112548828125000    0.0078735351562500 O
   0.0820312500000000    0.2799539566040039    0.0342407226562500 O
   0.0820312500000000    0.7200460433959961    0.5342407226562500 O
   0.3388671875000000    0.2682495117187500    0.7483520507812500 O
   0.3388671875000000    0.7317504882812500    0.2483520507812500 O
   0.5905761718750000    0.4451293945312500    0.9436035156250000 O
   0.5905761718750000    0.5548706054687500    0.4436035156250000 O
   0.9948730468750000    0.1256256103515625    0.2835388183593750 O
   0.9948730468750000    0.8743743896484375    0.7835388183593750 O
   0.9470214843750000    0.8018646240234375    0.0726318359375000 O
   0.9470214843750000    0.1981353759765625    0.5726318359375000 O
   0.4488525390625000    0.7879028320312500    0.7357177734375000 O
   0.4488525390625000    0.2120971679687500    0.2357177734375000 O
   0.2105102539062500    0.4311065673828125    0.3913574218750000 Ce
   0.2105102539062500    0.5688934326171875    0.8913574218750000 Ce
   0.6899414062500000    0.0656661987304688    0.8773193359375000 Eu
   0.6899414062500000    0.9343338012695312    0.3773193359375000 Eu
   0.1867675781250000    0.9974975585937500    0.1486816406250000 Ta
   0.1867675781250000    0.0025024414062500    0.6486816406250000 Ta
