Be4 Si4 H8 N4
1.0
   3.9060501968822656    0.0000000000000000   -0.0002553799244645
  -0.0003187807817869    4.8754510671095801   -0.0003187599403878
   0.0000000000000000    0.0000000000000000    8.6744489669799805
H Be N Si
8 4 4 4
direct
   0.6156311035156250    0.3074836730957031    0.0676269531250000 H
   0.8843688964843750    0.6925163269042969    0.5676269531250000 H
   0.3843688964843750    0.8074836730957031    0.4323730468750000 H
   0.1156311035156250    0.1925163269042969    0.9323730468750000 H
   0.1011047363281250    0.2086181640625000    0.5629882812500000 H
   0.3988952636718750    0.7913818359375000    0.0629882812500000 H
   0.8988952636718750    0.7086181640625000    0.9370117187500000 H
   0.6011047363281250    0.2913818359375000    0.4370117187500000 H
   0.2951660156250000    0.1983642578125000    0.7578125000000000 Be
   0.2048339843750000    0.8016357421875000    0.2578125000000000 Be
   0.7048339843750000    0.6983642578125000    0.7421875000000000 Be
   0.7951660156250000    0.3016357421875000    0.2421875000000000 Be
   0.8348388671875000    0.9792785644531250    0.2349243164062500 N
   0.6651611328125000    0.0207214355468750    0.7349243164062500 N
   0.1651611328125000    0.4792785644531250    0.2650756835937500 N
   0.3348388671875000    0.5207214355468750    0.7650756835937500 N
   0.7350463867187500    0.0071411132812500    0.5161514282226562 Si
   0.7649536132812500    0.9928588867187500    0.0161514282226562 Si
   0.2649536132812500    0.5071411132812500    0.9838485717773438 Si
   0.2350463867187500    0.4928588867187500    0.4838485717773438 Si
