Tm2 Ta2 O8
1.0
   5.1680374214177158    0.0000000000000000   -0.6017332325750399
  -0.0003888115046990    5.2946500522273610   -0.0003461674238413
   0.0000000000000000    0.0000000000000000    5.5959529876708984
Tm Ta O
2 2 8
direct
   0.0000000000000000    0.2612609863281250    0.2500000000000000 Tm
   0.0000000000000000    0.7387390136718750    0.7500000000000000 Tm
   0.5000000000000000    0.8110046386718750    0.2500000000000000 Ta
   0.5000000000000000    0.1889953613281250    0.7500000000000000 Ta
   0.7640991210937500    0.5893249511718750    0.3934135437011719 O
   0.2359008789062500    0.5893249511718750    0.1065864562988281 O
   0.2359008789062500    0.4106750488281250    0.6065864562988281 O
   0.7640991210937500    0.4106750488281250    0.8934135437011719 O
   0.2723999023437500    0.0725440979003906    0.9933471679687500 O
   0.7276000976562500    0.0725440979003906    0.5066528320312500 O
   0.7276000976562500    0.9274559020996094    0.0066528320312500 O
   0.2723999023437500    0.9274559020996094    0.4933471679687500 O
