Rb8 Pu4 Br24
1.0
  10.9669465784278923    0.0000000000000000   -0.0007170256007053
  -0.0007170724818055   10.9669465549850429   -0.0007170256007053
   0.0000000000000000    0.0000000000000000   10.9669466018676758
Pu Rb Br
4 8 24
direct
   0.0000000000000000    0.0000000000000000    0.0000000000000000 Pu
   0.0000000000000000    0.5000000000000000    0.5000000000000000 Pu
   0.5000000000000000    0.0000000000000000    0.5000000000000000 Pu
   0.5000000000000000    0.5000000000000000    0.0000000000000000 Pu
   0.2500000000000000    0.2500000000000000    0.2500000000000000 Rb
   0.7500000000000000    0.7500000000000000    0.2500000000000000 Rb
   0.7500000000000000    0.2500000000000000    0.7500000000000000 Rb
   0.2500000000000000    0.7500000000000000    0.7500000000000000 Rb
   0.2500000000000000    0.2500000000000000    0.7500000000000000 Rb
   0.7500000000000000    0.7500000000000000    0.7500000000000000 Rb
   0.2500000000000000    0.7500000000000000    0.2500000000000000 Rb
   0.7500000000000000    0.2500000000000000    0.2500000000000000 Rb
   0.2545318603515625    0.0000000000000000    0.0000000000000000 Br
   0.7454681396484375    0.0000000000000000    0.0000000000000000 Br
   0.0000000000000000    0.2545318603515625    0.0000000000000000 Br
   0.0000000000000000    0.7454681396484375    0.0000000000000000 Br
   0.0000000000000000    0.0000000000000000    0.2545318603515625 Br
   0.0000000000000000    0.0000000000000000    0.7454681396484375 Br
   0.2545318603515625    0.5000000000000000    0.5000000000000000 Br
   0.7454681396484375    0.5000000000000000    0.5000000000000000 Br
   0.0000000000000000    0.7545318603515625    0.5000000000000000 Br
   0.0000000000000000    0.2454681396484375    0.5000000000000000 Br
   0.0000000000000000    0.5000000000000000    0.7545318603515625 Br
   0.0000000000000000    0.5000000000000000    0.2454681396484375 Br
   0.7545318603515625    0.0000000000000000    0.5000000000000000 Br
   0.2454681396484375    0.0000000000000000    0.5000000000000000 Br
   0.5000000000000000    0.2545318603515625    0.5000000000000000 Br
   0.5000000000000000    0.7454681396484375    0.5000000000000000 Br
   0.5000000000000000    0.0000000000000000    0.7545318603515625 Br
   0.5000000000000000    0.0000000000000000    0.2454681396484375 Br
   0.7545318603515625    0.5000000000000000    0.0000000000000000 Br
   0.2454681396484375    0.5000000000000000    0.0000000000000000 Br
   0.5000000000000000    0.7545318603515625    0.0000000000000000 Br
   0.5000000000000000    0.2454681396484375    0.0000000000000000 Br
   0.5000000000000000    0.5000000000000000    0.2545318603515625 Br
   0.5000000000000000    0.5000000000000000    0.7454681396484375 Br
