Gd6 O6 F12
1.0
   4.0370521459125763    0.0000000000000000   -0.0002639449111292
  -2.0182970459652472    3.4963219335560760   -0.0002639449111292
   0.0000000000000000    0.0000000000000000   25.1018505096435547
O F Gd
6 12 6
direct
   0.6666666865348816    0.3333333432674408    0.1379394531250000 O
   0.3333333432674408    0.6666666865348816    0.8620605468750000 O
   0.3333333730697632    0.6666666865348816    0.4712727963924408 O
   0.0000000000000000    0.0000000000000000    0.1953938901424408 O
   0.0000000000000000    0.0000000000000000    0.8046061396598816 O
   0.6666666865348816    0.3333333730697632    0.5287272334098816 O
   0.3333333432674408    0.6666666865348816    0.6016235351562500 F
   0.6666666865348816    0.3333333432674408    0.3983764648437500 F
   0.0000000000000000    0.0000000000000000    0.9349569082260132 F
   0.3333333730697632    0.6666666865348816    0.7317098379135132 F
   0.6666666865348816    0.3333333730697632    0.2682902812957764 F
   0.0000000000000000    0.0000000000000000    0.0650431513786316 F
   0.0000000000000000    0.0000000000000000    0.6387290954589844 F
   0.0000000000000000    0.0000000000000000    0.3612709045410156 F
   0.6666666865348816    0.3333333432674408    0.9720624685287476 F
   0.6666666865348816    0.3333333432674408    0.6946042776107788 F
   0.3333333432674408    0.6666666865348816    0.3053958415985107 F
   0.3333333432674408    0.6666666865348816    0.0279375910758972 F
   0.3333333432674408    0.6666666865348816    0.3969116210937500 Gd
   0.6666666865348816    0.3333333432674408    0.6030883789062500 Gd
   0.0000000000000000    0.0000000000000000    0.7302449941635132 Gd
   0.3333333730697632    0.6666666865348816    0.9364217519760132 Gd
   0.6666666865348816    0.3333333730697632    0.0635783672332764 Gd
   0.0000000000000000    0.0000000000000000    0.2697550654411316 Gd
