Ba3 Al1 S3 O1
1.0
   6.6439475871181717    0.0000000000000000   -0.0004343853118678
  -0.0004344137131708    6.6439475729161277   -0.0004343853118678
   0.0000000000000000    0.0000000000000000    6.6439476013183594
O Al S Ba
1 1 3 3
direct
   0.0000000000000000    0.0000000000000000    0.0000000000000000 O
   0.5000000000000000    0.5000000000000000    0.5000000000000000 Al
   0.5000000000000000    0.5000000000000000    0.0000000000000000 S
   0.0000000000000000    0.5000000000000000    0.5000000000000000 S
   0.5000000000000000    0.0000000000000000    0.5000000000000000 S
   0.5000000000000000    0.0000000000000000    0.0000000000000000 Ba
   0.0000000000000000    0.5000000000000000    0.0000000000000000 Ba
   0.0000000000000000    0.0000000000000000    0.5000000000000000 Ba
