Li8 Cd8
1.0
   6.7749500129856397    0.0000000000000000   -0.0004429503297084
  -0.0004429792910158    6.7749499985035664   -0.0004429503297084
   0.0000000000000000    0.0000000000000000    6.7749500274658203
Li Cd
8 8
direct
   0.8750000000000000    0.8750000000000000    0.8750000000000000 Li
   0.8750000000000000    0.3750000000000000    0.3750000000000000 Li
   0.3750000000000000    0.3750000000000000    0.8750000000000000 Li
   0.3750000000000000    0.8750000000000000    0.3750000000000000 Li
   0.6250000000000000    0.1250000000000000    0.6250000000000000 Li
   0.1250000000000000    0.1250000000000000    0.1250000000000000 Li
   0.1250000000000000    0.6250000000000000    0.6250000000000000 Li
   0.6250000000000000    0.6250000000000000    0.1250000000000000 Li
   0.3750000000000000    0.8750000000000000    0.8750000000000000 Cd
   0.3750000000000000    0.3750000000000000    0.3750000000000000 Cd
   0.8750000000000000    0.3750000000000000    0.8750000000000000 Cd
   0.8750000000000000    0.8750000000000000    0.3750000000000000 Cd
   0.6250000000000000    0.6250000000000000    0.6250000000000000 Cd
   0.1250000000000000    0.6250000000000000    0.1250000000000000 Cd
   0.1250000000000000    0.1250000000000000    0.6250000000000000 Cd
   0.6250000000000000    0.1250000000000000    0.1250000000000000 Cd
