Y16 Sb16 I32
1.0
  12.8009462082971250    0.0000000000000000   -0.0008369336058092
  -0.0008369883268236   12.8009461809339342   -0.0008369336058092
   0.0000000000000000    0.0000000000000000   12.8009462356567383
Sb Y I
16 16 32
direct
   0.0000000000000000    0.0000000000000000    0.0000000000000000 Sb
   0.7500000000000000    0.2500000000000000    0.5000000000000000 Sb
   0.2500000000000000    0.5000000000000000    0.7500000000000000 Sb
   0.5000000000000000    0.7500000000000000    0.2500000000000000 Sb
   0.2500000000000000    0.7500000000000000    0.5000000000000000 Sb
   0.7500000000000000    0.5000000000000000    0.2500000000000000 Sb
   0.5000000000000000    0.2500000000000000    0.7500000000000000 Sb
   0.0000000000000000    0.5000000000000000    0.5000000000000000 Sb
   0.7500000000000000    0.7500000000000000    0.0000000000000000 Sb
   0.2500000000000000    0.0000000000000000    0.2500000000000000 Sb
   0.2500000000000000    0.2500000000000000    0.0000000000000000 Sb
   0.7500000000000000    0.0000000000000000    0.7500000000000000 Sb
   0.5000000000000000    0.0000000000000000    0.5000000000000000 Sb
   0.0000000000000000    0.7500000000000000    0.7500000000000000 Sb
   0.0000000000000000    0.2500000000000000    0.2500000000000000 Sb
   0.5000000000000000    0.5000000000000000    0.0000000000000000 Sb
   0.2500000000000000    0.0000000000000000    0.7500000000000000 Y
   0.5000000000000000    0.2500000000000000    0.2500000000000000 Y
   0.0000000000000000    0.5000000000000000    0.0000000000000000 Y
   0.7500000000000000    0.7500000000000000    0.5000000000000000 Y
   0.7500000000000000    0.2500000000000000    0.0000000000000000 Y
   0.2500000000000000    0.5000000000000000    0.2500000000000000 Y
   0.0000000000000000    0.0000000000000000    0.5000000000000000 Y
   0.5000000000000000    0.7500000000000000    0.7500000000000000 Y
   0.0000000000000000    0.7500000000000000    0.2500000000000000 Y
   0.2500000000000000    0.2500000000000000    0.5000000000000000 Y
   0.5000000000000000    0.0000000000000000    0.0000000000000000 Y
   0.7500000000000000    0.5000000000000000    0.7500000000000000 Y
   0.7500000000000000    0.0000000000000000    0.2500000000000000 Y
   0.2500000000000000    0.7500000000000000    0.0000000000000000 Y
   0.0000000000000000    0.2500000000000000    0.7500000000000000 Y
   0.5000000000000000    0.5000000000000000    0.5000000000000000 Y
   0.5592498779296875    0.6907501220703125    0.6907501220703125 I
   0.1907501220703125    0.5592498779296875    0.1907501220703125 I
   0.6907501220703125    0.1907501220703125    0.0592498779296875 I
   0.0592498779296875    0.0592498779296875    0.5592498779296875 I
   0.6907501220703125    0.5592498779296875    0.6907501220703125 I
   0.1907501220703125    0.1907501220703125    0.5592498779296875 I
   0.0592498779296875    0.6907501220703125    0.1907501220703125 I
   0.5592498779296875    0.0592498779296875    0.0592498779296875 I
   0.6907501220703125    0.6907501220703125    0.5592498779296875 I
   0.5592498779296875    0.1907501220703125    0.1907501220703125 I
   0.1907501220703125    0.0592498779296875    0.6907501220703125 I
   0.0592498779296875    0.5592498779296875    0.0592498779296875 I
   0.4407501220703125    0.8092498779296875    0.8092498779296875 I
   0.3092498779296875    0.4407501220703125    0.3092498779296875 I
   0.9407501220703125    0.9407501220703125    0.4407501220703125 I
   0.8092498779296875    0.3092498779296875    0.9407501220703125 I
   0.3092498779296875    0.9407501220703125    0.8092498779296875 I
   0.9407501220703125    0.4407501220703125    0.9407501220703125 I
   0.4407501220703125    0.3092498779296875    0.3092498779296875 I
   0.8092498779296875    0.8092498779296875    0.4407501220703125 I
   0.4407501220703125    0.9407501220703125    0.9407501220703125 I
   0.9407501220703125    0.8092498779296875    0.3092498779296875 I
   0.8092498779296875    0.4407501220703125    0.8092498779296875 I
   0.3092498779296875    0.3092498779296875    0.4407501220703125 I
   0.3092498779296875    0.8092498779296875    0.9407501220703125 I
   0.9407501220703125    0.3092498779296875    0.8092498779296875 I
   0.8092498779296875    0.9407501220703125    0.3092498779296875 I
   0.1907501220703125    0.6907501220703125    0.0592498779296875 I
   0.6907501220703125    0.0592498779296875    0.1907501220703125 I
   0.0592498779296875    0.1907501220703125    0.6907501220703125 I
   0.5592498779296875    0.5592498779296875    0.5592498779296875 I
   0.4407501220703125    0.4407501220703125    0.4407501220703125 I
