Tb2 Al8 Fe8 P4
1.0
   6.8404488417335880    0.0000000000000000   -0.0004472326827492
  -0.0004472619240486    6.8404488271115049   -0.0004472326827492
   0.0000000000000000    0.0000000000000000    7.0893511772155762
Tb P Al Fe
2 4 8 8
direct
   0.0000000000000000    0.0000000000000000    0.2500000000000000 Tb
   0.0000000000000000    0.0000000000000000    0.7500000000000000 Tb
   0.8184509277343750    0.2793579101562500    0.0000000000000000 P
   0.1815490722656250    0.7206420898437500    0.0000000000000000 P
   0.7206420898437500    0.8184509277343750    0.5000000000000000 P
   0.2793579101562500    0.1815490722656250    0.5000000000000000 P
   0.6000022888183594    0.7625122070312500    0.8210449218750000 Al
   0.3999977111816406    0.2374877929687500    0.8210449218750000 Al
   0.2374877929687500    0.6000022888183594    0.3210449218750000 Al
   0.7625122070312500    0.3999977111816406    0.3210449218750000 Al
   0.3999977111816406    0.2374877929687500    0.1789550781250000 Al
   0.6000022888183594    0.7625122070312500    0.1789550781250000 Al
   0.7625122070312500    0.3999977111816406    0.6789550781250000 Al
   0.2374877929687500    0.6000022888183594    0.6789550781250000 Al
   0.9066162109375000    0.6326293945312500    0.8580017089843750 Fe
   0.0933837890625000    0.3673706054687500    0.8580017089843750 Fe
   0.3673706054687500    0.9066162109375000    0.3580017089843750 Fe
   0.6326293945312500    0.0933837890625000    0.3580017089843750 Fe
   0.0933837890625000    0.3673706054687500    0.1419982910156250 Fe
   0.9066162109375000    0.6326293945312500    0.1419982910156250 Fe
   0.6326293945312500    0.0933837890625000    0.6419982910156250 Fe
   0.3673706054687500    0.9066162109375000    0.6419982910156250 Fe
