Ti4 Sn4
1.0
   4.4562516117219388    0.0000000000000000   -0.0002913524257585
  -0.0007521909394212   11.5040502056430789   -0.0007521417623300
   0.0000000000000000    0.0000000000000000    3.4868469238281250
Sn Ti
4 4
direct
   0.2500000000000000    0.0000000000000000    0.2478790283203125 Sn
   0.7500000000000000    0.0000000000000000    0.7521209716796875 Sn
   0.2500000000000000    0.5000000000000000    0.2539062500000000 Sn
   0.7500000000000000    0.5000000000000000    0.7460937500000000 Sn
   0.2500000000000000    0.2414550781250000    0.7522583007812500 Ti
   0.2500000000000000    0.7585449218750000    0.7522583007812500 Ti
   0.7500000000000000    0.2414550781250000    0.2477416992187500 Ti
   0.7500000000000000    0.7585449218750000    0.2477416992187500 Ti
