Sn4 Mo2
1.0
   5.4505580010494992    0.0000000000000000   -0.1188125131974379
  -0.0002023582648663    3.0283489094960436   -0.0001979952838555
   0.0000000000000000    0.0000000000000000    5.0719523429870605
Mo Sn
2 4
direct
   0.0000000000000000    0.0000000000000000    0.0000000000000000 Mo
   0.5000000000000000    0.5000000000000000    0.0000000000000000 Mo
   0.3330001831054688    0.0000000000000000    0.6781005859375000 Sn
   0.6669998168945312    0.0000000000000000    0.3218994140625000 Sn
   0.8330001831054688    0.5000000000000000    0.6781005859375000 Sn
   0.1669998168945312    0.5000000000000000    0.3218994140625000 Sn
