Y4 Ho4 Ru8
1.0
   6.6177511073767983    0.0000000000000000   -0.0004326725701773
  -0.0004327008594965    6.6177510932307513   -0.0004326725701773
   0.0000000000000000    0.0000000000000000    6.6177511215209961
Y Ho Ru
4 4 8
direct
   0.0000000000000000    0.0000000000000000    0.0000000000000000 Y
   0.0000000000000000    0.5000000000000000    0.5000000000000000 Y
   0.5000000000000000    0.0000000000000000    0.5000000000000000 Y
   0.5000000000000000    0.5000000000000000    0.0000000000000000 Y
   0.5000000000000000    0.0000000000000000    0.0000000000000000 Ho
   0.0000000000000000    0.5000000000000000    0.0000000000000000 Ho
   0.0000000000000000    0.0000000000000000    0.5000000000000000 Ho
   0.5000000000000000    0.5000000000000000    0.5000000000000000 Ho
   0.2500000000000000    0.2500000000000000    0.2500000000000000 Ru
   0.7500000000000000    0.7500000000000000    0.2500000000000000 Ru
   0.7500000000000000    0.2500000000000000    0.7500000000000000 Ru
   0.2500000000000000    0.7500000000000000    0.7500000000000000 Ru
   0.2500000000000000    0.2500000000000000    0.7500000000000000 Ru
   0.7500000000000000    0.7500000000000000    0.7500000000000000 Ru
   0.2500000000000000    0.7500000000000000    0.2500000000000000 Ru
   0.7500000000000000    0.2500000000000000    0.2500000000000000 Ru
