Fe4 Cu1 O6 F6
1.0
   4.8277720920223173    0.0000000000000000   -1.5969834244590897
  -1.3360387286759876    4.9364509514966333   -1.2104430444846528
   0.0000000000000000    0.0000000000000000    7.5740494728088379
Cu O F Fe
1 6 6 4
direct
   0.0000000000000000    0.5000000000000000    0.0000000000000000 Cu
   0.2833251953125000    0.6434326171875000    0.5615234375000000 O
   0.7166748046875000    0.3565673828125000    0.4384765625000000 O
   0.0557861328125000    0.4603729248046875    0.7586059570312500 O
   0.9442138671875000    0.5396270751953125    0.2413940429687500 O
   0.6736450195312500    0.6407470703125000    0.9327087402343750 O
   0.3263549804687500    0.3592529296875000    0.0672912597656250 O
   0.7127685546875000    0.1734008789062500    0.8968200683593750 F
   0.2872314453125000    0.8265991210937500    0.1031799316406250 F
   0.6804199218750000    0.8142623901367188    0.4625549316406250 F
   0.3195800781250000    0.1857376098632812    0.5374450683593750 F
   0.1428222656250000    0.0020751953125000    0.7810058593750000 F
   0.8571777343750000    0.9979248046875000    0.2189941406250000 F
   0.3828125000000000    0.3362731933593750    0.8079833984375000 Fe
   0.6171875000000000    0.6637268066406250    0.1920166015625000 Fe
   0.9813842773437500    0.6716308593750000    0.5904846191406250 Fe
   0.0186157226562500    0.3283691406250000    0.4095153808593750 Fe
