Ba8 Zn4 P4 H24
1.0
   7.8491525482263551    0.0000000000000000   -0.0005131823411988
  -0.0005132158944677    7.8491525314480759   -0.0005131823411988
   0.0000000000000000    0.0000000000000000    7.8491525650024414
Zn P Ba H
4 4 8 24
direct
   0.0000000000000000    0.0000000000000000    0.0000000000000000 Zn
   0.0000000000000000    0.5000000000000000    0.5000000000000000 Zn
   0.5000000000000000    0.0000000000000000    0.5000000000000000 Zn
   0.5000000000000000    0.5000000000000000    0.0000000000000000 Zn
   0.5000000000000000    0.0000000000000000    0.0000000000000000 P
   0.0000000000000000    0.5000000000000000    0.0000000000000000 P
   0.0000000000000000    0.0000000000000000    0.5000000000000000 P
   0.5000000000000000    0.5000000000000000    0.5000000000000000 P
   0.2500000000000000    0.2500000000000000    0.2500000000000000 Ba
   0.7500000000000000    0.7500000000000000    0.2500000000000000 Ba
   0.7500000000000000    0.2500000000000000    0.7500000000000000 Ba
   0.2500000000000000    0.7500000000000000    0.7500000000000000 Ba
   0.2500000000000000    0.2500000000000000    0.7500000000000000 Ba
   0.7500000000000000    0.7500000000000000    0.7500000000000000 Ba
   0.2500000000000000    0.7500000000000000    0.2500000000000000 Ba
   0.7500000000000000    0.2500000000000000    0.2500000000000000 Ba
   0.2867431640625000    0.0000000000000000    0.0000000000000000 H
   0.7132568359375000    0.0000000000000000    0.0000000000000000 H
   0.0000000000000000    0.2867431640625000    0.0000000000000000 H
   0.0000000000000000    0.7132568359375000    0.0000000000000000 H
   0.0000000000000000    0.0000000000000000    0.2867431640625000 H
   0.0000000000000000    0.0000000000000000    0.7132568359375000 H
   0.2867431640625000    0.5000000000000000    0.5000000000000000 H
   0.7132568359375000    0.5000000000000000    0.5000000000000000 H
   0.0000000000000000    0.7867431640625000    0.5000000000000000 H
   0.0000000000000000    0.2132568359375000    0.5000000000000000 H
   0.0000000000000000    0.5000000000000000    0.7867431640625000 H
   0.0000000000000000    0.5000000000000000    0.2132568359375000 H
   0.7867431640625000    0.0000000000000000    0.5000000000000000 H
   0.2132568359375000    0.0000000000000000    0.5000000000000000 H
   0.5000000000000000    0.2867431640625000    0.5000000000000000 H
   0.5000000000000000    0.7132568359375000    0.5000000000000000 H
   0.5000000000000000    0.0000000000000000    0.7867431640625000 H
   0.5000000000000000    0.0000000000000000    0.2132568359375000 H
   0.7867431640625000    0.5000000000000000    0.0000000000000000 H
   0.2132568359375000    0.5000000000000000    0.0000000000000000 H
   0.5000000000000000    0.7867431640625000    0.0000000000000000 H
   0.5000000000000000    0.2132568359375000    0.0000000000000000 H
   0.5000000000000000    0.5000000000000000    0.2867431640625000 H
   0.5000000000000000    0.5000000000000000    0.7132568359375000 H
