Ce2 Cu4 Si4
1.0
   4.1680507570827867    0.0000000000000000   -0.0002725096795626
  -0.0002725274969928    4.1680507481731981   -0.0002725096795626
   0.0000000000000000    0.0000000000000000    9.8665513992309570
Ce Cu Si
2 4 4
direct
   0.0000000000000000    0.0000000000000000    0.0000000000000000 Ce
   0.5000000000000000    0.5000000000000000    0.5000000000000000 Ce
   0.0000000000000000    0.5000000000000000    0.2500000000000000 Cu
   0.5000000000000000    0.0000000000000000    0.2500000000000000 Cu
   0.0000000000000000    0.5000000000000000    0.7500000000000000 Cu
   0.5000000000000000    0.0000000000000000    0.7500000000000000 Cu
   0.5000000000000000    0.5000000000000000    0.1208496093750000 Si
   0.5000000000000000    0.5000000000000000    0.8791503906250000 Si
   0.0000000000000000    0.0000000000000000    0.6208496093750000 Si
   0.0000000000000000    0.0000000000000000    0.3791503906250000 Si
