Li4 Mn4 Cu4 O16
1.0
   5.9627513758055457    0.0000000000000000   -0.0003898482915476
  -0.0003924433420109    6.0020503741220903   -0.0003924176846665
   0.0000000000000000    0.0000000000000000    8.6351499557495117
Cu Li Mn O
4 4 4 16
direct
   0.0000000000000000    0.0000000000000000    0.0000000000000000 Cu
   0.0000000000000000    0.5000000000000000    0.0000000000000000 Cu
   0.5000000000000000    0.5000000000000000    0.5000000000000000 Cu
   0.5000000000000000    0.0000000000000000    0.5000000000000000 Cu
   0.2500000000000000    0.2500000000000000    0.7500000000000000 Li
   0.7500000000000000    0.2500000000000000    0.7500000000000000 Li
   0.7500000000000000    0.7500000000000000    0.2500000000000000 Li
   0.2500000000000000    0.7500000000000000    0.2500000000000000 Li
   0.0000000000000000    0.2500000000000000    0.3851318359375000 Mn
   0.0000000000000000    0.7500000000000000    0.6148681640625000 Mn
   0.5000000000000000    0.7500000000000000    0.8851318359375000 Mn
   0.5000000000000000    0.2500000000000000    0.1148681640625000 Mn
   0.0000000000000000    0.5083312988281250    0.7436370849609375 O
   0.0000000000000000    0.9916687011718750    0.7436370849609375 O
   0.0000000000000000    0.0083312988281250    0.2563629150390625 O
   0.0000000000000000    0.4916687011718750    0.2563629150390625 O
   0.5000000000000000    0.0083312988281250    0.2436370849609375 O
   0.5000000000000000    0.4916687011718750    0.2436370849609375 O
   0.5000000000000000    0.5083312988281250    0.7563629150390625 O
   0.5000000000000000    0.9916687011718750    0.7563629150390625 O
   0.2342886924743652    0.2500000000000000    0.0019836425781250 O
   0.7657113075256348    0.2500000000000000    0.0019836425781250 O
   0.7657113075256348    0.7500000000000000    0.9980163574218750 O
   0.2342886924743652    0.7500000000000000    0.9980163574218750 O
   0.7342886924743652    0.7500000000000000    0.5019836425781250 O
   0.2657113075256348    0.7500000000000000    0.5019836425781250 O
   0.2657113075256348    0.2500000000000000    0.4980163574218750 O
   0.7342886924743652    0.2500000000000000    0.4980163574218750 O
