Li4 V8 O20
1.0
   9.5387065658279848    0.0000000000000000   -3.4447272501551902
  -0.0008383003297153    9.0019482983553729   -0.0005885528271680
   0.0000000000000000    0.0000000000000000    5.3601531982421875
Li O V
4 20 8
direct
   0.7528305053710938    0.2292480468750000    0.8901672363281250 Li
   0.7528305053710938    0.7707519531250000    0.3901672363281250 Li
   0.2528305053710938    0.7292480468750000    0.8901672363281250 Li
   0.2528305053710938    0.2707519531250000    0.3901672363281250 Li
   0.1604161262512207    0.2450256347656250    0.9985351562500000 O
   0.1604161262512207    0.7549743652343750    0.4985351562500000 O
   0.6604161262512207    0.7450256347656250    0.9985351562500000 O
   0.6604161262512207    0.2549743652343750    0.4985351562500000 O
   0.9462280273437500    0.4519042968750000    0.9900512695312500 O
   0.9462280273437500    0.5480957031250000    0.4900512695312500 O
   0.4462280273437500    0.9519042968750000    0.9900512695312500 O
   0.4462280273437500    0.0480957031250000    0.4900512695312500 O
   0.1992120742797852    0.9139556884765625    0.0482482910156250 O
   0.1992120742797852    0.0860443115234375    0.5482482910156250 O
   0.6992120742797852    0.4139556884765625    0.0482482910156250 O
   0.6992120742797852    0.5860443115234375    0.5482482910156250 O
   0.1607666015625000    0.5673828125000000    0.0438232421875000 O
   0.1607666015625000    0.4326171875000000    0.5438232421875000 O
   0.6607666015625000    0.0673828125000000    0.0438232421875000 O
   0.6607666015625000    0.9326171875000000    0.5438232421875000 O
   0.4313354492187500    0.7852783203125000    0.5825500488281250 O
   0.4313354492187500    0.2147216796875000    0.0825500488281250 O
   0.9313354492187500    0.2852783203125000    0.5825500488281250 O
   0.9313354492187500    0.7147216796875000    0.0825500488281250 O
   0.5695495605468750    0.0956420898437500    0.2878112792968750 V
   0.5695495605468750    0.9043579101562500    0.7878112792968750 V
   0.0695495605468750    0.5956420898437500    0.2878112792968750 V
   0.0695495605468750    0.4043579101562500    0.7878112792968750 V
   0.7747192382812500    0.5942001342773438    0.9148406982421875 V
   0.7747192382812500    0.4057998657226562    0.4148406982421875 V
   0.2747192382812500    0.0942001342773438    0.9148406982421875 V
   0.2747192382812500    0.9057998657226562    0.4148406982421875 V
