Rb3 Er1 V2 O8
1.0
   5.8186511869045487    0.0000000000000000   -0.0003804269340376
  -2.9089954941310148    5.0392903121363402   -0.0003804269340376
   0.0000000000000000    0.0000000000000000    7.6919498443603516
Rb Er O V Rb O
1 1 2 2 2 6
direct
   0.0000000000000000    0.0000000000000000    0.0000000000000000 Rb
   0.0000000000000000    0.0000000000000000    0.5000000000000000 Er
   0.6666666865348816    0.3333333432674408    0.9624023437500000 O
   0.3333333432674408    0.6666666865348816    0.0375976562500000 O
   0.6666666865348816    0.3333333432674408    0.7515258789062500 V
   0.3333333432674408    0.6666666865348816    0.2484741210937500 V
   0.6666666865348816    0.3333333432674408    0.2973632812500000 Rb
   0.3333333432674408    0.6666666865348816    0.7026367187500000 Rb
   0.3428039550781250    0.1714019775390625    0.6629638671875000 O
   0.8285980224609375    0.1714019775390625    0.6629638671875000 O
   0.8285980224609375    0.6571960449218750    0.6629638671875000 O
   0.1714019775390625    0.3428039550781250    0.3370361328125000 O
   0.1714019775390625    0.8285980224609375    0.3370361328125000 O
   0.6571960449218750    0.8285980224609375    0.3370361328125000 O
