Ca4 Pr2 I16
1.0
  10.1809491893607422    0.0000000000000000   -0.0006656366159940
  -0.0006656801371414   10.1809491675980350   -0.0006656366159940
   0.0000000000000000    0.0000000000000000    8.3207530975341797
Pr Ca I
2 4 16
direct
   0.0000000000000000    0.0000000000000000    0.2500000000000000 Pr
   0.0000000000000000    0.0000000000000000    0.7500000000000000 Pr
   0.2474517822265625    0.4249267578125000    0.5000000000000000 Ca
   0.7525482177734375    0.5750732421875000    0.5000000000000000 Ca
   0.5750732421875000    0.2474517822265625    0.0000000000000000 Ca
   0.4249267578125000    0.7525482177734375    0.0000000000000000 Ca
   0.1790771484375000    0.0957336425781250    0.5000000000000000 I
   0.8209228515625000    0.9042663574218750    0.5000000000000000 I
   0.9042663574218750    0.1790771484375000    0.0000000000000000 I
   0.0957336425781250    0.8209228515625000    0.0000000000000000 I
   0.5659790039062500    0.3222045898437500    0.5000000000000000 I
   0.4340209960937500    0.6777954101562500    0.5000000000000000 I
   0.6777954101562500    0.5659790039062500    0.0000000000000000 I
   0.3222045898437500    0.4340209960937500    0.0000000000000000 I
   0.6542663574218750    0.9464187622070312    0.1792297363281250 I
   0.3457336425781250    0.0535812377929688    0.1792297363281250 I
   0.0535812377929688    0.6542663574218750    0.6792297363281250 I
   0.9464187622070312    0.3457336425781250    0.6792297363281250 I
   0.3457336425781250    0.0535812377929688    0.8207702636718750 I
   0.6542663574218750    0.9464187622070312    0.8207702636718750 I
   0.9464187622070312    0.3457336425781250    0.3207702636718750 I
   0.0535812377929688    0.6542663574218750    0.3207702636718750 I
