Dy2 Co10 B2
1.0
   4.2466478257014213    0.0000000000000000   -0.0002776484034487
  -0.0002776665568627    4.2466478166238240   -0.0002776484034487
   0.0000000000000000    0.0000000000000000    7.5609512329101562
Co B Dy Co
2 2 2 8
direct
   0.7500000000000000    0.2500000000000000    0.0000000000000000 Co
   0.2500000000000000    0.7500000000000000    0.0000000000000000 Co
   0.2500000000000000    0.2500000000000000    0.9915771484375000 B
   0.7500000000000000    0.7500000000000000    0.0084228515625000 B
   0.7500000000000000    0.7500000000000000    0.4959716796875000 Dy
   0.2500000000000000    0.2500000000000000    0.5040283203125000 Dy
   0.5019836425781250    0.5019836425781250    0.2055053710937500 Co
   0.9980163574218750    0.9980163574218750    0.2055053710937500 Co
   0.9980163574218750    0.5019836425781250    0.2055053710937500 Co
   0.5019836425781250    0.9980163574218750    0.2055053710937500 Co
   0.4980163574218750    0.0019836425781250    0.7944946289062500 Co
   0.0019836425781250    0.4980163574218750    0.7944946289062500 Co
   0.0019836425781250    0.0019836425781250    0.7944946289062500 Co
   0.4980163574218750    0.4980163574218750    0.7944946289062500 Co
