Cs8 K4 In4 Cl24
1.0
  11.3468475099279367    0.0000000000000000   -0.0007418637533916
  -0.0007419122584783   11.3468474856730150   -0.0007418637533916
   0.0000000000000000    0.0000000000000000   11.3468475341796875
In K Cs Cl
4 4 8 24
direct
   0.0000000000000000    0.0000000000000000    0.0000000000000000 In
   0.0000000000000000    0.5000000000000000    0.5000000000000000 In
   0.5000000000000000    0.0000000000000000    0.5000000000000000 In
   0.5000000000000000    0.5000000000000000    0.0000000000000000 In
   0.5000000000000000    0.0000000000000000    0.0000000000000000 K
   0.0000000000000000    0.5000000000000000    0.0000000000000000 K
   0.0000000000000000    0.0000000000000000    0.5000000000000000 K
   0.5000000000000000    0.5000000000000000    0.5000000000000000 K
   0.2500000000000000    0.2500000000000000    0.2500000000000000 Cs
   0.7500000000000000    0.7500000000000000    0.2500000000000000 Cs
   0.7500000000000000    0.2500000000000000    0.7500000000000000 Cs
   0.2500000000000000    0.7500000000000000    0.7500000000000000 Cs
   0.2500000000000000    0.2500000000000000    0.7500000000000000 Cs
   0.7500000000000000    0.7500000000000000    0.7500000000000000 Cs
   0.2500000000000000    0.7500000000000000    0.2500000000000000 Cs
   0.7500000000000000    0.2500000000000000    0.2500000000000000 Cs
   0.2270355224609375    0.0000000000000000    0.0000000000000000 Cl
   0.7729644775390625    0.0000000000000000    0.0000000000000000 Cl
   0.0000000000000000    0.2270355224609375    0.0000000000000000 Cl
   0.0000000000000000    0.7729644775390625    0.0000000000000000 Cl
   0.0000000000000000    0.0000000000000000    0.2270355224609375 Cl
   0.0000000000000000    0.0000000000000000    0.7729644775390625 Cl
   0.2270355224609375    0.5000000000000000    0.5000000000000000 Cl
   0.7729644775390625    0.5000000000000000    0.5000000000000000 Cl
   0.0000000000000000    0.7270355224609375    0.5000000000000000 Cl
   0.0000000000000000    0.2729644775390625    0.5000000000000000 Cl
   0.0000000000000000    0.5000000000000000    0.7270355224609375 Cl
   0.0000000000000000    0.5000000000000000    0.2729644775390625 Cl
   0.7270355224609375    0.0000000000000000    0.5000000000000000 Cl
   0.2729644775390625    0.0000000000000000    0.5000000000000000 Cl
   0.5000000000000000    0.2270355224609375    0.5000000000000000 Cl
   0.5000000000000000    0.7729644775390625    0.5000000000000000 Cl
   0.5000000000000000    0.0000000000000000    0.7270355224609375 Cl
   0.5000000000000000    0.0000000000000000    0.2729644775390625 Cl
   0.7270355224609375    0.5000000000000000    0.0000000000000000 Cl
   0.2729644775390625    0.5000000000000000    0.0000000000000000 Cl
   0.5000000000000000    0.7270355224609375    0.0000000000000000 Cl
   0.5000000000000000    0.2729644775390625    0.0000000000000000 Cl
   0.5000000000000000    0.5000000000000000    0.2270355224609375 Cl
   0.5000000000000000    0.5000000000000000    0.7729644775390625 Cl
