Li3 V9 Fe3 Co3 O24
1.0
   6.0282506813906513    0.0000000000000000   -0.0003941306757643
  -3.0137833505339655    5.2208156636421403   -0.0003941306757643
   0.0000000000000000    0.0000000000000000   14.9100484848022461
Li O Fe Co O V
3 6 3 3 18 9
direct
   0.3333333432674408    0.6666666865348816    0.2975406646728516 Li
   0.0000000000000000    0.0000000000000000    0.6308740377426147 Li
   0.6666666865348816    0.3333333730697632    0.9642073512077332 Li
   0.6666666865348816    0.3333333432674408    0.5802612304687500 O
   0.3333333730697632    0.6666666865348816    0.9135946035385132 O
   0.0000000000000000    0.0000000000000000    0.2469279766082764 O
   0.3333333432674408    0.6666666865348816    0.4331359863281250 O
   0.0000000000000000    0.0000000000000000    0.7664693593978882 O
   0.6666666865348816    0.3333333730697632    0.0998027324676514 O
   0.0000000000000000    0.0000000000000000    0.0036621093750000 Fe
   0.6666666865348816    0.3333333432674408    0.3369954526424408 Fe
   0.3333333432674408    0.6666666865348816    0.6703287959098816 Fe
   0.6666666865348816    0.3333333432674408    0.7135009765625000 Co
   0.3333333730697632    0.6666666865348816    0.0468343496322632 Co
   0.0000000000000000    0.0000000000000000    0.3801677227020264 Co
   0.8238220214843750    0.6476440429687500    0.4330444335937500 O
   0.3523559570312500    0.1761779785156250    0.4330444335937500 O
   0.8238220214843750    0.1761779785156250    0.4330444335937500 O
   0.4904887676239014    0.9809774160385132    0.7663778066635132 O
   0.0190226435661316    0.5095113515853882    0.7663778066635132 O
   0.4904887080192566    0.5095113515853882    0.7663778066635132 O
   0.1571553945541382    0.3143107891082764    0.0997111797332764 O
   0.6856893301010132    0.8428446650505066    0.0997111797332764 O
   0.1571553647518158    0.8428446650505066    0.0997111797332764 O
   0.8485412597656250    0.6970825195312500    0.9107055664062500 O
   0.3029174804687500    0.1514587402343750    0.9107055664062500 O
   0.8485412597656250    0.1514587402343750    0.9107055664062500 O
   0.5152080059051514    0.0304158926010132    0.2440389394760132 O
   0.9695841670036316    0.4847920835018158    0.2440389394760132 O
   0.5152079463005066    0.4847921133041382    0.2440389394760132 O
   0.1818746328353882    0.3637492656707764    0.5773723125457764 O
   0.6362508535385132    0.8181254267692566    0.5773723125457764 O
   0.1818746030330658    0.8181254267692566    0.5773723125457764 O
   0.4984130859375000    0.5015869140625000    0.5130844116210938 V
   0.4984130859375000    0.9968261718750000    0.5130844116210938 V
   0.0031738281250000    0.5015869140625000    0.5130844116210938 V
   0.1650798320770264    0.8349202871322632    0.8464177846908569 V
   0.1650797724723816    0.3301595151424408    0.8464177846908569 V
   0.6698405146598816    0.8349202871322632    0.8464177846908569 V
   0.8317464590072632    0.1682536602020264    0.1797511577606201 V
   0.8317464590072632    0.6634928584098816    0.1797511577606201 V
   0.3365071713924408    0.1682536005973816    0.1797511577606201 V
