Pr4 In8 Co4
1.0
   7.0631470529275342    0.0000000000000000   -0.0004617928264971
  -0.0004729583769821    7.2334518123394140   -0.0004729274556880
   0.0000000000000000    0.0000000000000000    5.5828514099121094
Co Pr In
4 4 8
direct
   0.1213378906250000    0.2500000000000000    0.6404724121093750 Co
   0.3786621093750000    0.7500000000000000    0.1404724121093750 Co
   0.8786621093750000    0.7500000000000000    0.3595275878906250 Co
   0.6213378906250000    0.2500000000000000    0.8595275878906250 Co
   0.9615478515625000    0.2500000000000000    0.1242675781250000 Pr
   0.5384521484375000    0.7500000000000000    0.6242675781250000 Pr
   0.0384521484375000    0.7500000000000000    0.8757324218750000 Pr
   0.4615478515625000    0.2500000000000000    0.3757324218750000 Pr
   0.8278999328613281    0.4541091918945312    0.6204757690429688 In
   0.6721000671386719    0.5458908081054688    0.1204757690429688 In
   0.1721000671386719    0.9541091918945312    0.3795242309570312 In
   0.3278999328613281    0.0458908081054688    0.8795242309570312 In
   0.1721000671386719    0.5458908081054688    0.3795242309570312 In
   0.3278999328613281    0.4541091918945312    0.8795242309570312 In
   0.8278999328613281    0.0458908081054688    0.6204757690429688 In
   0.6721000671386719    0.9541091918945312    0.1204757690429688 In
