Bi4 Pb2 I8
1.0
  10.5289008526926366    0.0000000000000000   -2.3296225859605770
  -0.0005751377012215    7.0631470295113878   -0.0004617928264971
   0.0000000000000000    0.0000000000000000   10.5477476119995117
I Pb Bi
8 2 4
direct
   0.3127460479736328    0.2500000000000000    0.6117553710937500 I
   0.6872539520263672    0.7500000000000000    0.3882446289062500 I
   0.8390808105468750    0.2500000000000000    0.6995544433593750 I
   0.1609191894531250    0.7500000000000000    0.3004455566406250 I
   0.8603973388671875    0.2500000000000000    0.1193237304687500 I
   0.1396026611328125    0.7500000000000000    0.8806762695312500 I
   0.3936767578125000    0.2500000000000000    0.1003417968750000 I
   0.6063232421875000    0.7500000000000000    0.8996582031250000 I
   0.6755065917968750    0.2500000000000000    0.3318481445312500 Pb
   0.3244934082031250    0.7500000000000000    0.6681518554687500 Pb
   0.1682357788085938    0.2500000000000000    0.2659149169921875 Bi
   0.8317642211914062    0.7500000000000000    0.7340850830078125 Bi
   0.5752525329589844    0.2500000000000000    0.8264999389648438 Bi
   0.4247474670410156    0.7500000000000000    0.1735000610351562 Bi
