Gd8 Fe4 O24
1.0
  10.5739516985915749    0.0000000000000000   -0.0006913313577569
  -0.0006177139363171    9.4473514153019664   -0.0006176735511264
   0.0000000000000000    0.0000000000000000    6.2640471458435059
Fe O Gd
4 24 8
direct
   0.0000000000000000    0.0000000000000000    0.0000000000000000 Fe
   0.0000000000000000    0.5000000000000000    0.5000000000000000 Fe
   0.5000000000000000    0.5000000000000000    0.0000000000000000 Fe
   0.5000000000000000    0.0000000000000000    0.5000000000000000 Fe
   0.2500000000000000    0.4564208984375000    0.2500000000000000 O
   0.7500000000000000    0.0435791015625000    0.7500000000000000 O
   0.7500000000000000    0.9564208984375000    0.2500000000000000 O
   0.2500000000000000    0.5435791015625000    0.7500000000000000 O
   0.7500000000000000    0.5435791015625000    0.7500000000000000 O
   0.2500000000000000    0.9564208984375000    0.2500000000000000 O
   0.2500000000000000    0.0435791015625000    0.7500000000000000 O
   0.7500000000000000    0.4564208984375000    0.2500000000000000 O
   0.2500000000000000    0.7960815429687500    0.2500000000000000 O
   0.7500000000000000    0.7039184570312500    0.7500000000000000 O
   0.7500000000000000    0.2960815429687500    0.2500000000000000 O
   0.2500000000000000    0.2039184570312500    0.7500000000000000 O
   0.7500000000000000    0.2039184570312500    0.7500000000000000 O
   0.2500000000000000    0.2960815429687500    0.2500000000000000 O
   0.2500000000000000    0.7039184570312500    0.7500000000000000 O
   0.7500000000000000    0.7960815429687500    0.2500000000000000 O
   0.0000000000000000    0.3364372253417969    0.5180664062500000 O
   0.0000000000000000    0.1635627746582031    0.0180664062500000 O
   0.0000000000000000    0.8364372253417969    0.9819335937500000 O
   0.0000000000000000    0.6635627746582031    0.4819335937500000 O
   0.5000000000000000    0.8364372253417969    0.5180664062500000 O
   0.5000000000000000    0.6635627746582031    0.0180664062500000 O
   0.5000000000000000    0.3364372253417969    0.9819335937500000 O
   0.5000000000000000    0.1635627746582031    0.4819335937500000 O
   0.0000000000000000    0.8617439270019531    0.3280029296875000 Gd
   0.0000000000000000    0.6382560729980469    0.8280029296875000 Gd
   0.0000000000000000    0.3617439270019531    0.1719970703125000 Gd
   0.0000000000000000    0.1382560729980469    0.6719970703125000 Gd
   0.5000000000000000    0.3617439270019531    0.3280029296875000 Gd
   0.5000000000000000    0.1382560729980469    0.8280029296875000 Gd
   0.5000000000000000    0.8617439270019531    0.1719970703125000 Gd
   0.5000000000000000    0.6382560729980469    0.6719970703125000 Gd
