Rb2 Cl2 F2
1.0
   3.9322504913208967    0.0000000000000000   -0.0002570929155622
  -0.0002571097250021    3.9322504829153524   -0.0002570929155622
   0.0000000000000000    0.0000000000000000    7.1810507774353027
F Cl Rb
2 2 2
direct
   0.7500000000000000    0.2500000000000000    0.0000000000000000 F
   0.2500000000000000    0.7500000000000000    0.0000000000000000 F
   0.7500000000000000    0.7500000000000000    0.3576660156250000 Cl
   0.2500000000000000    0.2500000000000000    0.6423339843750000 Cl
   0.7500000000000000    0.7500000000000000    0.7910270690917969 Rb
   0.2500000000000000    0.2500000000000000    0.2089729309082031 Rb
