Cd1 Rh3
1.0
   3.9322504913208967    0.0000000000000000   -0.0002570929155622
  -0.0002571097250021    3.9322504829153524   -0.0002570929155622
   0.0000000000000000    0.0000000000000000    3.9322504997253418
Cd Rh
1 3
direct
   0.0000000000000000    0.0000000000000000    0.0000000000000000 Cd
   0.5000000000000000    0.5000000000000000    0.0000000000000000 Rh
   0.0000000000000000    0.5000000000000000    0.5000000000000000 Rh
   0.5000000000000000    0.0000000000000000    0.5000000000000000 Rh
