Ru2 I8
1.0
   8.4400809436651656    0.0000000000000000   -0.4439870429013417
  -0.0003594399054596    5.2160529855003119   -0.0003410286999552
   0.0000000000000000    0.0000000000000000    7.7443504333496094
Ru I
2 8
direct
   0.0000000000000000    0.0000000000000000    0.0000000000000000 Ru
   0.5000000000000000    0.5000000000000000    0.0000000000000000 Ru
   0.6852416992187500    0.0000000000000000    0.9025573730468750 I
   0.3147583007812500    0.0000000000000000    0.0974426269531250 I
   0.1852416992187500    0.5000000000000000    0.9025573730468750 I
   0.8147583007812500    0.5000000000000000    0.0974426269531250 I
   0.0875854492187500    0.0000000000000000    0.6791381835937500 I
   0.9124145507812500    0.0000000000000000    0.3208618164062500 I
   0.5875854492187500    0.5000000000000000    0.6791381835937500 I
   0.4124145507812500    0.5000000000000000    0.3208618164062500 I
