Pr6 Ga12
1.0
   6.2771491870232285    0.0000000000000000   -0.0004104038106099
  -3.1382184830283557    5.4363762442389501   -0.0004104038106099
   0.0000000000000000    0.0000000000000000   10.8752470016479492
Pr Ga
6 12
direct
   0.6666666865348816    0.3333333432674408    0.2500000000000000 Pr
   0.3333333134651184    0.6666666269302368    0.7500000000000000 Pr
   0.0000000000000000    0.0000000000000000    0.4300842285156250 Pr
   0.0000000000000000    0.0000000000000000    0.9300842285156250 Pr
   0.0000000000000000    0.0000000000000000    0.5699157714843750 Pr
   0.0000000000000000    0.0000000000000000    0.0699157714843750 Pr
   0.5000000000000000    0.5000000000000000    0.0000000000000000 Ga
   0.5000000000000000    0.0000000000000000    0.0000000000000000 Ga
   0.0000000000000000    0.5000000000000000    0.0000000000000000 Ga
   0.5000000000000000    0.5000000000000000    0.5000000000000000 Ga
   0.5000000000000000    0.0000000000000000    0.5000000000000000 Ga
   0.0000000000000000    0.5000000000000000    0.5000000000000000 Ga
   0.2738342285156250    0.1369171142578125    0.2500000000000000 Ga
   0.8630828857421875    0.1369171142578125    0.2500000000000000 Ga
   0.8630828857421875    0.7261657714843750    0.2500000000000000 Ga
   0.7261657714843750    0.8630828857421875    0.7500000000000000 Ga
   0.1369171142578125    0.8630828857421875    0.7500000000000000 Ga
   0.1369171142578125    0.2738342285156250    0.7500000000000000 Ga
