Dy9 Mg6 Ti3 S24
1.0
   7.5609512167500466    0.0000000000000000   -0.0004943395638270
  -3.7800466662053425    6.5482234616255948   -0.0004943395638270
   0.0000000000000000    0.0000000000000000   18.1850490570068359
Ti Mg S Dy S
3 6 6 9 18
direct
   0.3333333432674408    0.6666666865348816    0.1666666716337204 Ti
   0.6666666865348816    0.3333333432674408    0.8333333134651184 Ti
   0.0000000000000000    0.0000000000000000    0.5000000000000000 Ti
   0.6666666865348816    0.3333333432674408    0.2094116210937500 Mg
   0.3333333432674408    0.6666666865348816    0.7905883789062500 Mg
   0.3333333730697632    0.6666666865348816    0.5427449941635132 Mg
   0.0000000000000000    0.0000000000000000    0.1239217221736908 Mg
   0.0000000000000000    0.0000000000000000    0.8760783076286316 Mg
   0.6666666865348816    0.3333333730697632    0.4572550654411316 Mg
   0.0000000000000000    0.0000000000000000    0.7542114257812500 S
   0.0000000000000000    0.0000000000000000    0.2457885742187500 S
   0.6666666865348816    0.3333333432674408    0.0875447988510132 S
   0.6666666865348816    0.3333333432674408    0.5791219472885132 S
   0.3333333432674408    0.6666666865348816    0.4208781719207764 S
   0.3333333432674408    0.6666666865348816    0.9124552607536316 S
   0.5000000000000000    0.5000000000000000    0.0000000000000000 Dy
   0.5000000000000000    0.0000000000000000    0.0000000000000000 Dy
   0.0000000000000000    0.5000000000000000    0.0000000000000000 Dy
   0.1666667461395264    0.8333333730697632    0.3333333432674408 Dy
   0.1666666865348816    0.3333333432674408    0.3333333432674408 Dy
   0.6666666865348816    0.8333333730697632    0.3333333432674408 Dy
   0.8333333730697632    0.1666667461395264    0.6666666865348816 Dy
   0.8333333730697632    0.6666666865348816    0.6666666865348816 Dy
   0.3333333432674408    0.1666666865348816    0.6666666865348816 Dy
   0.4866943359375000    0.5133056640625000    0.2415771484375000 S
   0.4866943359375000    0.9733886718750000    0.2415771484375000 S
   0.0266113281250000    0.5133056640625000    0.2415771484375000 S
   0.5133056640625000    0.4866943359375000    0.7584228515625000 S
   0.9733886718750000    0.4866943359375000    0.7584228515625000 S
   0.5133056640625000    0.0266113281250000    0.7584228515625000 S
   0.1533610820770264    0.8466390371322632    0.5749105215072632 S
   0.1533610224723816    0.3067220151424408    0.5749105215072632 S
   0.6932780146598816    0.8466390371322632    0.5749105215072632 S
   0.1799724102020264    0.8200277090072632    0.0917561948299408 S
   0.6400553584098816    0.8200277090072632    0.0917561948299408 S
   0.1799723505973816    0.3599446713924408    0.0917561948299408 S
   0.8200277090072632    0.1799724102020264    0.9082438349723816 S
   0.8200277090072632    0.6400553584098816    0.9082438349723816 S
   0.3599446713924408    0.1799723505973816    0.9082438349723816 S
   0.8466390371322632    0.1533610820770264    0.4250895380973816 S
   0.3067220151424408    0.1533610224723816    0.4250895380973816 S
   0.8466390371322632    0.6932780146598816    0.4250895380973816 S
