Ho4 Bi4 Pt4
1.0
   6.7749500129856397    0.0000000000000000   -0.0004429503297084
  -0.0004429792910158    6.7749499985035664   -0.0004429503297084
   0.0000000000000000    0.0000000000000000    6.7749500274658203
Bi Ho Pt
4 4 4
direct
   0.0000000000000000    0.0000000000000000    0.0000000000000000 Bi
   0.0000000000000000    0.5000000000000000    0.5000000000000000 Bi
   0.5000000000000000    0.0000000000000000    0.5000000000000000 Bi
   0.5000000000000000    0.5000000000000000    0.0000000000000000 Bi
   0.5000000000000000    0.0000000000000000    0.0000000000000000 Ho
   0.0000000000000000    0.5000000000000000    0.0000000000000000 Ho
   0.0000000000000000    0.0000000000000000    0.5000000000000000 Ho
   0.5000000000000000    0.5000000000000000    0.5000000000000000 Ho
   0.2500000000000000    0.2500000000000000    0.7500000000000000 Pt
   0.7500000000000000    0.7500000000000000    0.7500000000000000 Pt
   0.7500000000000000    0.2500000000000000    0.2500000000000000 Pt
   0.2500000000000000    0.7500000000000000    0.2500000000000000 Pt
