Hf4 Cr6 Ge2
1.0
   5.1374511608946651    0.0000000000000000   -0.0003358896643101
  -2.5684341264510815    4.4493314743520083   -0.0003358896643101
   0.0000000000000000    0.0000000000000000    8.0849523544311523
Ge Hf Cr
2 4 6
direct
   0.0000000000000000    0.0000000000000000    0.0000000000000000 Ge
   0.0000000000000000    0.0000000000000000    0.5000000000000000 Ge
   0.6666666865348816    0.3333333432674408    0.4320068359375000 Hf
   0.3333333134651184    0.6666666269302368    0.9320068359375000 Hf
   0.3333333432674408    0.6666666865348816    0.5679931640625000 Hf
   0.6666666269302368    0.3333333134651184    0.0679931640625000 Hf
   0.1763305664062500    0.3526611328125000    0.2500000000000000 Cr
   0.6473388671875000    0.8236694335937500    0.2500000000000000 Cr
   0.1763305664062500    0.8236694335937500    0.2500000000000000 Cr
   0.8236694335937500    0.6473388671875000    0.7500000000000000 Cr
   0.3526611328125000    0.1763305664062500    0.7500000000000000 Cr
   0.8236694335937500    0.1763305664062500    0.7500000000000000 Cr
