Ce2 Fe4 Ge4
1.0
   4.0370521459125763    0.0000000000000000   -0.0002639449111292
  -0.0002639621685713    4.0370521372830090   -0.0002639449111292
   0.0000000000000000    0.0000000000000000   10.1809492111206055
Ce Fe Ge
2 4 4
direct
   0.0000000000000000    0.0000000000000000    0.0000000000000000 Ce
   0.5000000000000000    0.5000000000000000    0.5000000000000000 Ce
   0.0000000000000000    0.5000000000000000    0.2500000000000000 Fe
   0.5000000000000000    0.0000000000000000    0.2500000000000000 Fe
   0.0000000000000000    0.5000000000000000    0.7500000000000000 Fe
   0.5000000000000000    0.0000000000000000    0.7500000000000000 Fe
   0.0000000000000000    0.0000000000000000    0.3688659667968750 Ge
   0.0000000000000000    0.0000000000000000    0.6311340332031250 Ge
   0.5000000000000000    0.5000000000000000    0.8688659667968750 Ge
   0.5000000000000000    0.5000000000000000    0.1311340332031250 Ge
