Ba4 Sr4 Ni4 O12
1.0
   5.7007474777449243    0.0000000000000000   -0.0003727183182181
  -0.0007170724818055   10.9669465549850429   -0.0007170256007053
   0.0000000000000000    0.0000000000000000    5.6745510101318359
O Ni Sr Ba O
4 4 4 4 8
direct
   0.0000000000000000    0.0000000000000000    0.0000000000000000 O
   0.0000000000000000    0.0000000000000000    0.5000000000000000 O
   0.5000000000000000    0.5000000000000000    0.0000000000000000 O
   0.5000000000000000    0.5000000000000000    0.5000000000000000 O
   0.0000000000000000    0.0566101074218750    0.2500000000000000 Ni
   0.0000000000000000    0.9433898925781250    0.7500000000000000 Ni
   0.5000000000000000    0.5566101074218750    0.2500000000000000 Ni
   0.5000000000000000    0.4433898925781250    0.7500000000000000 Ni
   0.0000000000000000    0.4215698242187500    0.2500000000000000 Sr
   0.0000000000000000    0.5784301757812500    0.7500000000000000 Sr
   0.5000000000000000    0.9215698242187500    0.2500000000000000 Sr
   0.5000000000000000    0.0784301757812500    0.7500000000000000 Sr
   0.5000000000000000    0.2708740234375000    0.2500000000000000 Ba
   0.5000000000000000    0.7291259765625000    0.7500000000000000 Ba
   0.0000000000000000    0.7708740234375000    0.2500000000000000 Ba
   0.0000000000000000    0.2291259765625000    0.7500000000000000 Ba
   0.2367191314697266    0.0000000000000000    0.0000000000000000 O
   0.7632808685302734    0.0000000000000000    0.5000000000000000 O
   0.7632808685302734    0.0000000000000000    0.0000000000000000 O
   0.2367191314697266    0.0000000000000000    0.5000000000000000 O
   0.7367191314697266    0.5000000000000000    0.0000000000000000 O
   0.2632808685302734    0.5000000000000000    0.5000000000000000 O
   0.2632808685302734    0.5000000000000000    0.0000000000000000 O
   0.7367191314697266    0.5000000000000000    0.5000000000000000 O
