Be4 N4
1.0
   4.1418504626441566    0.0000000000000000   -0.0002707966884648
  -0.0002708143938950    4.1418504537905738   -0.0002707966884648
   0.0000000000000000    0.0000000000000000    4.1418504714965820
Be N
4 4
direct
   0.2500000000000000    0.2500000000000000    0.2500000000000000 Be
   0.7500000000000000    0.7500000000000000    0.2500000000000000 Be
   0.7500000000000000    0.2500000000000000    0.7500000000000000 Be
   0.2500000000000000    0.7500000000000000    0.7500000000000000 Be
   0.2500000000000000    0.2500000000000000    0.7500000000000000 N
   0.7500000000000000    0.7500000000000000    0.7500000000000000 N
   0.7500000000000000    0.2500000000000000    0.2500000000000000 N
   0.2500000000000000    0.7500000000000000    0.2500000000000000 N
