Tl18 Bi2 I12
1.0
  11.6612481821685616    0.0000000000000000   -0.0007624194595094
  -0.0007624693085846   11.6612481572415803   -0.0007624194595094
   0.0000000000000000    0.0000000000000000   11.6612482070922852
Bi Tl I
2 18 12
direct
   0.0000000000000000    0.0000000000000000    0.0000000000000000 Bi
   0.5000000000000000    0.5000000000000000    0.5000000000000000 Bi
   0.5000000000000000    0.0000000000000000    0.0000000000000000 Tl
   0.0000000000000000    0.5000000000000000    0.0000000000000000 Tl
   0.0000000000000000    0.0000000000000000    0.5000000000000000 Tl
   0.0000000000000000    0.5000000000000000    0.5000000000000000 Tl
   0.5000000000000000    0.0000000000000000    0.5000000000000000 Tl
   0.5000000000000000    0.5000000000000000    0.0000000000000000 Tl
   0.5000000000000000    0.2500000000000000    0.0000000000000000 Tl
   0.5000000000000000    0.7500000000000000    0.0000000000000000 Tl
   0.0000000000000000    0.5000000000000000    0.2500000000000000 Tl
   0.0000000000000000    0.5000000000000000    0.7500000000000000 Tl
   0.2500000000000000    0.0000000000000000    0.5000000000000000 Tl
   0.7500000000000000    0.0000000000000000    0.5000000000000000 Tl
   0.2500000000000000    0.5000000000000000    0.0000000000000000 Tl
   0.7500000000000000    0.5000000000000000    0.0000000000000000 Tl
   0.5000000000000000    0.0000000000000000    0.7500000000000000 Tl
   0.5000000000000000    0.0000000000000000    0.2500000000000000 Tl
   0.0000000000000000    0.2500000000000000    0.5000000000000000 Tl
   0.0000000000000000    0.7500000000000000    0.5000000000000000 Tl
   0.7453002929687500    0.0000000000000000    0.0000000000000000 I
   0.2546997070312500    0.0000000000000000    0.0000000000000000 I
   0.0000000000000000    0.7453002929687500    0.0000000000000000 I
   0.0000000000000000    0.2546997070312500    0.0000000000000000 I
   0.0000000000000000    0.0000000000000000    0.7453002929687500 I
   0.0000000000000000    0.0000000000000000    0.2546997070312500 I
   0.2453002929687500    0.5000000000000000    0.5000000000000000 I
   0.7546997070312500    0.5000000000000000    0.5000000000000000 I
   0.5000000000000000    0.2453002929687500    0.5000000000000000 I
   0.5000000000000000    0.7546997070312500    0.5000000000000000 I
   0.5000000000000000    0.5000000000000000    0.2453002929687500 I
   0.5000000000000000    0.5000000000000000    0.7546997070312500 I
