H8 O4
1.0
   4.9671506775550371    0.0000000000000000   -0.0003247553157023
  -0.0003247765490955    4.9671506669372993   -0.0003247553157023
   0.0000000000000000    0.0000000000000000    4.9671506881713867
O H
4 8
direct
   0.0000000000000000    0.0000000000000000    0.0000000000000000 O
   0.0000000000000000    0.5000000000000000    0.5000000000000000 O
   0.5000000000000000    0.0000000000000000    0.5000000000000000 O
   0.5000000000000000    0.5000000000000000    0.0000000000000000 O
   0.2500000000000000    0.2500000000000000    0.2500000000000000 H
   0.7500000000000000    0.7500000000000000    0.2500000000000000 H
   0.7500000000000000    0.2500000000000000    0.7500000000000000 H
   0.2500000000000000    0.7500000000000000    0.7500000000000000 H
   0.2500000000000000    0.2500000000000000    0.7500000000000000 H
   0.7500000000000000    0.7500000000000000    0.7500000000000000 H
   0.2500000000000000    0.7500000000000000    0.2500000000000000 H
   0.7500000000000000    0.2500000000000000    0.2500000000000000 H
