Ti8 Re4 Tc4
1.0
   6.1592492925608617    0.0000000000000000   -0.0004026954441977
  -0.0004027217735302    6.1592492793949045   -0.0004026954441977
   0.0000000000000000    0.0000000000000000    6.1592493057250977
Re Tc Ti
4 4 8
direct
   0.0000000000000000    0.0000000000000000    0.0000000000000000 Re
   0.0000000000000000    0.5000000000000000    0.5000000000000000 Re
   0.5000000000000000    0.0000000000000000    0.5000000000000000 Re
   0.5000000000000000    0.5000000000000000    0.0000000000000000 Re
   0.5000000000000000    0.0000000000000000    0.0000000000000000 Tc
   0.0000000000000000    0.5000000000000000    0.0000000000000000 Tc
   0.0000000000000000    0.0000000000000000    0.5000000000000000 Tc
   0.5000000000000000    0.5000000000000000    0.5000000000000000 Tc
   0.2500000000000000    0.2500000000000000    0.2500000000000000 Ti
   0.7500000000000000    0.7500000000000000    0.2500000000000000 Ti
   0.7500000000000000    0.2500000000000000    0.7500000000000000 Ti
   0.2500000000000000    0.7500000000000000    0.7500000000000000 Ti
   0.2500000000000000    0.2500000000000000    0.7500000000000000 Ti
   0.7500000000000000    0.7500000000000000    0.7500000000000000 Ti
   0.2500000000000000    0.7500000000000000    0.2500000000000000 Ti
   0.7500000000000000    0.2500000000000000    0.2500000000000000 Ti
