Zr8 Ir8
1.0
   6.5522479870944359    0.0000000000000000   -0.0004283899365533
  -0.0004284179458622    6.5522479730884085   -0.0004283899365533
   0.0000000000000000    0.0000000000000000    6.5522480010986328
Ir Zr
8 8
direct
   0.0000000000000000    0.0000000000000000    0.0000000000000000 Ir
   0.0000000000000000    0.5000000000000000    0.5000000000000000 Ir
   0.5000000000000000    0.0000000000000000    0.5000000000000000 Ir
   0.5000000000000000    0.5000000000000000    0.0000000000000000 Ir
   0.5000000000000000    0.0000000000000000    0.0000000000000000 Ir
   0.0000000000000000    0.5000000000000000    0.0000000000000000 Ir
   0.0000000000000000    0.0000000000000000    0.5000000000000000 Ir
   0.5000000000000000    0.5000000000000000    0.5000000000000000 Ir
   0.2500000000000000    0.2500000000000000    0.2500000000000000 Zr
   0.7500000000000000    0.7500000000000000    0.2500000000000000 Zr
   0.7500000000000000    0.2500000000000000    0.7500000000000000 Zr
   0.2500000000000000    0.7500000000000000    0.7500000000000000 Zr
   0.2500000000000000    0.2500000000000000    0.7500000000000000 Zr
   0.7500000000000000    0.7500000000000000    0.7500000000000000 Zr
   0.2500000000000000    0.7500000000000000    0.2500000000000000 Zr
   0.7500000000000000    0.2500000000000000    0.2500000000000000 Zr
