Hg36
1.0
   9.1255546667682435    0.0000000000000000   -1.6697085855410889
  -0.0009721124576123   12.3948497126092434   -0.0008103827737842
   0.0000000000000000    0.0000000000000000   15.1589469909667969
Hg
36
direct
   0.9957275390625000    0.7483825683593750    0.6361713409423828 Hg
   0.0042724609375000    0.2483825683593750    0.8638286590576172 Hg
   0.0042724609375000    0.2516174316406250    0.3638286590576172 Hg
   0.9957275390625000    0.7516174316406250    0.1361713409423828 Hg
   0.6596984863281250    0.3714294433593750    0.2235260009765625 Hg
   0.3403015136718750    0.8714294433593750    0.2764739990234375 Hg
   0.3403015136718750    0.6285705566406250    0.7764739990234375 Hg
   0.6596984863281250    0.1285705566406250    0.7235260009765625 Hg
   0.6988754272460938    0.3897094726562500    0.8844146728515625 Hg
   0.3011245727539062    0.8897094726562500    0.6155853271484375 Hg
   0.3011245727539062    0.6102905273437500    0.1155853271484375 Hg
   0.6988754272460938    0.1102905273437500    0.3844146728515625 Hg
   0.6728577613830566    0.9007568359375000    0.5504760742187500 Hg
   0.3271422386169434    0.4007568359375000    0.9495239257812500 Hg
   0.3271422386169434    0.0992431640625000    0.4495239257812500 Hg
   0.6728577613830566    0.5992431640625000    0.0504760742187500 Hg
   0.9497299194335938    0.5808258056640625    0.3439636230468750 Hg
   0.0502700805664062    0.0808258056640625    0.1560363769531250 Hg
   0.0502700805664062    0.4191741943359375    0.6560363769531250 Hg
   0.9497299194335938    0.9191741943359375    0.8439636230468750 Hg
   0.3874397277832031    0.3248291015625000    0.6486511230468750 Hg
   0.6125602722167969    0.8248291015625000    0.8513488769531250 Hg
   0.6125602722167969    0.6751708984375000    0.3513488769531250 Hg
   0.3874397277832031    0.1751708984375000    0.1486511230468750 Hg
   0.0083465576171875    0.9404907226562500    0.3632507324218750 Hg
   0.9916534423828125    0.4404907226562500    0.1367492675781250 Hg
   0.9916534423828125    0.0595092773437500    0.6367492675781250 Hg
   0.0083465576171875    0.5595092773437500    0.8632507324218750 Hg
   0.2799072265625000    0.8279113769531250    0.9366302490234375 Hg
   0.7200927734375000    0.3279113769531250    0.5633697509765625 Hg
   0.7200927734375000    0.1720886230468750    0.0633697509765625 Hg
   0.2799072265625000    0.6720886230468750    0.4366302490234375 Hg
   0.3288879394531250    0.0993652343750000    0.9176025390625000 Hg
   0.6711120605468750    0.5993652343750000    0.5823974609375000 Hg
   0.6711120605468750    0.9006347656250000    0.0823974609375000 Hg
   0.3288879394531250    0.4006347656250000    0.4176025390625000 Hg
