Y3 Mg3 Ga3
1.0
   7.4037484964439475    0.0000000000000000   -0.0004840615548886
  -3.7014542243582040    6.4120767636996385   -0.0004840615548886
   0.0000000000000000    0.0000000000000000    3.9977498054504395
Ga Y Mg
3 3 3
direct
   0.0000000000000000    0.0000000000000000    0.0000000000000000 Ga
   0.6666666865348816    0.3333333432674408    0.5000000000000000 Ga
   0.3333333432674408    0.6666666865348816    0.5000000000000000 Ga
   0.4113769531250000    0.0000000000000000    0.0000000000000000 Y
   0.0000000000000000    0.4113769531250000    0.0000000000000000 Y
   0.5886230468750000    0.5886230468750000    0.0000000000000000 Y
   0.7519531250000000    0.0000000000000000    0.5000000000000000 Mg
   0.0000000000000000    0.7519531250000000    0.5000000000000000 Mg
   0.2480468750000000    0.2480468750000000    0.5000000000000000 Mg
