In2 Cu4 Te8 Pb2
1.0
  11.0063915732369448    0.0000000000000000   -2.0168244742508263
  -0.0003526741855117    4.4955501321976792   -0.0002939217877016
   0.0000000000000000    0.0000000000000000   11.0979490280151367
In Pb Cu Te
2 2 4 8
direct
   0.0000000000000000    0.0000000000000000    0.0000000000000000 In
   0.5000000000000000    0.5000000000000000    0.0000000000000000 In
   0.0000000000000000    0.0000000000000000    0.5000000000000000 Pb
   0.5000000000000000    0.5000000000000000    0.5000000000000000 Pb
   0.3058624267578125    0.0000000000000000    0.8654556274414062 Cu
   0.6941375732421875    0.0000000000000000    0.1345443725585938 Cu
   0.8058624267578125    0.5000000000000000    0.8654556274414062 Cu
   0.1941375732421875    0.5000000000000000    0.1345443725585938 Cu
   0.3427734375000000    0.0000000000000000    0.6270141601562500 Te
   0.6572265625000000    0.0000000000000000    0.3729858398437500 Te
   0.8427734375000000    0.5000000000000000    0.6270141601562500 Te
   0.1572265625000000    0.5000000000000000    0.3729858398437500 Te
   0.6568908691406250    0.0000000000000000    0.8800659179687500 Te
   0.3431091308593750    0.0000000000000000    0.1199340820312500 Te
   0.1568908691406250    0.5000000000000000    0.8800659179687500 Te
   0.8431091308593750    0.5000000000000000    0.1199340820312500 Te
