Ca2 Al2 Ga4 Au2
1.0
   4.4169530774126216    0.0000000000000000   -0.0002887830638155
  -0.0002888019452442    4.4169530679709812   -0.0002887830638155
   0.0000000000000000    0.0000000000000000   11.6350479125976562
Al Ca Au Ga
2 2 2 4
direct
   0.5000000000000000    0.5000000000000000    0.3847656250000000 Al
   0.0000000000000000    0.0000000000000000    0.8847656250000000 Al
   0.0000000000000000    0.0000000000000000    0.4996948242187500 Ca
   0.5000000000000000    0.5000000000000000    0.9996948242187500 Ca
   0.0000000000000000    0.0000000000000000    0.1093139648437500 Au
   0.5000000000000000    0.5000000000000000    0.6093139648437500 Au
   0.0000000000000000    0.5000000000000000    0.7556762695312500 Ga
   0.5000000000000000    0.0000000000000000    0.7556762695312500 Ga
   0.5000000000000000    0.0000000000000000    0.2556762695312500 Ga
   0.0000000000000000    0.5000000000000000    0.2556762695312500 Ga
