In2 Ge8 Os6
1.0
   6.9059519620159504    0.0000000000000000   -0.0004515153163732
  -0.0004515448376828    6.9059519472538478   -0.0004515153163732
   0.0000000000000000    0.0000000000000000    6.9059519767761230
In Os Ge
2 6 8
direct
   0.0000000000000000    0.0000000000000000    0.0000000000000000 In
   0.5000000000000000    0.5000000000000000    0.5000000000000000 In
   0.5000000000000000    0.2500000000000000    0.0000000000000000 Os
   0.5000000000000000    0.7500000000000000    0.0000000000000000 Os
   0.0000000000000000    0.5000000000000000    0.2500000000000000 Os
   0.0000000000000000    0.5000000000000000    0.7500000000000000 Os
   0.2500000000000000    0.0000000000000000    0.5000000000000000 Os
   0.7500000000000000    0.0000000000000000    0.5000000000000000 Os
   0.2500000000000000    0.2500000000000000    0.2500000000000000 Ge
   0.7500000000000000    0.7500000000000000    0.2500000000000000 Ge
   0.7500000000000000    0.2500000000000000    0.7500000000000000 Ge
   0.2500000000000000    0.7500000000000000    0.7500000000000000 Ge
   0.7500000000000000    0.7500000000000000    0.7500000000000000 Ge
   0.2500000000000000    0.2500000000000000    0.7500000000000000 Ge
   0.2500000000000000    0.7500000000000000    0.2500000000000000 Ge
   0.7500000000000000    0.2500000000000000    0.2500000000000000 Ge
