Mn3 Al1
1.0
   4.0501508626204199    0.0000000000000000   -0.0002648013131504
  -0.0002648186265864    4.0501508539628528   -0.0002648013131504
   0.0000000000000000    0.0000000000000000    4.0501508712768555
Al Mn
1 3
direct
   0.0000000000000000    0.0000000000000000    0.0000000000000000 Al
   0.5000000000000000    0.5000000000000000    0.0000000000000000 Mn
   0.0000000000000000    0.5000000000000000    0.5000000000000000 Mn
   0.5000000000000000    0.0000000000000000    0.5000000000000000 Mn
