Ac4 In4 Ag8
1.0
   7.5871476964914191    0.0000000000000000   -0.0004960523055175
  -0.0004960847387777    7.5871476802731985   -0.0004960523055175
   0.0000000000000000    0.0000000000000000    7.5871477127075195
In Ac Ag
4 4 8
direct
   0.0000000000000000    0.0000000000000000    0.0000000000000000 In
   0.0000000000000000    0.5000000000000000    0.5000000000000000 In
   0.5000000000000000    0.0000000000000000    0.5000000000000000 In
   0.5000000000000000    0.5000000000000000    0.0000000000000000 In
   0.5000000000000000    0.0000000000000000    0.0000000000000000 Ac
   0.0000000000000000    0.5000000000000000    0.0000000000000000 Ac
   0.0000000000000000    0.0000000000000000    0.5000000000000000 Ac
   0.5000000000000000    0.5000000000000000    0.5000000000000000 Ac
   0.2500000000000000    0.2500000000000000    0.2500000000000000 Ag
   0.7500000000000000    0.7500000000000000    0.2500000000000000 Ag
   0.7500000000000000    0.2500000000000000    0.7500000000000000 Ag
   0.2500000000000000    0.7500000000000000    0.7500000000000000 Ag
   0.2500000000000000    0.2500000000000000    0.7500000000000000 Ag
   0.7500000000000000    0.7500000000000000    0.7500000000000000 Ag
   0.2500000000000000    0.7500000000000000    0.2500000000000000 Ag
   0.7500000000000000    0.2500000000000000    0.2500000000000000 Ag
