La3 Al3 Cu3
1.0
   9.1329507632559164    0.0000000000000000   -0.0005971178450086
  -4.5659572579681598    7.9096664887000587   -0.0005971178450086
   0.0000000000000000    0.0000000000000000    3.0021483898162842
Cu Al La
3 3 3
direct
   0.0000000000000000    0.0000000000000000    0.5000000000000000 Cu
   0.6666666865348816    0.3333333432674408    0.0000000000000000 Cu
   0.3333333432674408    0.6666666865348816    0.0000000000000000 Cu
   0.2354736328125000    0.0000000000000000    0.0000000000000000 Al
   0.0000000000000000    0.2354736328125000    0.0000000000000000 Al
   0.7645263671875000    0.7645263671875000    0.0000000000000000 Al
   0.5999145507812500    0.0000000000000000    0.5000000000000000 La
   0.0000000000000000    0.5999145507812500    0.5000000000000000 La
   0.4000854492187500    0.4000854492187500    0.5000000000000000 La
