Be1 Co1 Ni6
1.0
   3.9715492640487926    0.0000000000000000   -0.0002596622930932
  -0.0002596792705261    3.9715492555592440   -0.0002596622930932
   0.0000000000000000    0.0000000000000000    4.6920518875122070
Be Co Ni
1 1 6
direct
   0.0000000000000000    0.0000000000000000    0.5000000000000000 Be
   0.5000000000000000    0.5000000000000000    0.0000000000000000 Co
   0.0000000000000000    0.5000000000000000    0.0000000000000000 Ni
   0.5000000000000000    0.0000000000000000    0.0000000000000000 Ni
   0.2711791992187500    0.2711791992187500    0.5000000000000000 Ni
   0.7288208007812500    0.7288208007812500    0.5000000000000000 Ni
   0.7288208007812500    0.2711791992187500    0.5000000000000000 Ni
   0.2711791992187500    0.7288208007812500    0.5000000000000000 Ni
