Tm2 Lu2 Fe2 Co2 Ge8
1.0
  11.8528283812608102    0.0000000000000000   -6.0305252062323254
  -0.0003815480109471    3.5785464960588773   -0.0002339675357424
   0.0000000000000000    0.0000000000000000    6.1985516548156738
Fe Co Ge Tm Lu
2 2 8 2 2
direct
   0.0031738281250000    0.0000000000000000    0.4821166992187500 Fe
   0.5031738281250000    0.5000000000000000    0.4821166992187500 Fe
   0.5261230468750000    0.0000000000000000    0.8628540039062500 Co
   0.0261230468750000    0.5000000000000000    0.8628540039062500 Co
   0.4826660156250000    0.0000000000000000    0.2111816406250000 Ge
   0.9826660156250000    0.5000000000000000    0.2111816406250000 Ge
   0.1363525390625000    0.0000000000000000    0.8902587890625000 Ge
   0.6363525390625000    0.5000000000000000    0.8902587890625000 Ge
   0.3923645019531250    0.0000000000000000    0.5109863281250000 Ge
   0.8923645019531250    0.5000000000000000    0.5109863281250000 Ge
   0.1761474609375000    0.0000000000000000    0.5311279296875000 Ge
   0.6761474609375000    0.5000000000000000    0.5311279296875000 Ge
   0.7260742187500000    0.0000000000000000    0.2393341064453125 Tm
   0.2260742187500000    0.5000000000000000    0.2393341064453125 Tm
   0.8352661132812500    0.0000000000000000    0.8488159179687500 Lu
   0.3352661132812500    0.5000000000000000    0.8488159179687500 Lu
