Hg4 Br2 N2
1.0
   3.8012521185692645    0.0000000000000000   -0.0002485281627168
  -0.0002485444121696    3.8012521104437416   -0.0002485281627168
   0.0000000000000000    0.0000000000000000   10.6787490844726562
Br N Hg
2 2 4
direct
   0.0000000000000000    0.0000000000000000    0.0000000000000000 Br
   0.5000000000000000    0.5000000000000000    0.5000000000000000 Br
   0.5000000000000000    0.5000000000000000    0.0000000000000000 N
   0.0000000000000000    0.0000000000000000    0.5000000000000000 N
   0.0000000000000000    0.5000000000000000    0.2500000000000000 Hg
   0.5000000000000000    0.0000000000000000    0.2500000000000000 Hg
   0.0000000000000000    0.5000000000000000    0.7500000000000000 Hg
   0.5000000000000000    0.0000000000000000    0.7500000000000000 Hg
