Ca2 Eu2 Cu2 O8
1.0
   4.1942510515214178    0.0000000000000000   -0.0002742226706604
  -0.0002742406000906    4.1942510425558233   -0.0002742226706604
   0.0000000000000000    0.0000000000000000   12.7747497558593750
O Ca Cu Eu O
4 2 2 2 4
direct
   0.5000000000000000    0.5000000000000000    0.9598083496093750 O
   0.0000000000000000    0.0000000000000000    0.4598083496093750 O
   0.0000000000000000    0.0000000000000000    0.8163757324218750 O
   0.5000000000000000    0.5000000000000000    0.3163757324218750 O
   0.0000000000000000    0.0000000000000000    0.0043945312500000 Ca
   0.5000000000000000    0.5000000000000000    0.5043945312500000 Ca
   0.5000000000000000    0.5000000000000000    0.1416625976562500 Cu
   0.0000000000000000    0.0000000000000000    0.6416625976562500 Cu
   0.0000000000000000    0.0000000000000000    0.2813720703125000 Eu
   0.5000000000000000    0.5000000000000000    0.7813720703125000 Eu
   0.0000000000000000    0.5000000000000000    0.1380615234375000 O
   0.5000000000000000    0.0000000000000000    0.1380615234375000 O
   0.5000000000000000    0.0000000000000000    0.6380615234375000 O
   0.0000000000000000    0.5000000000000000    0.6380615234375000 O
