Li3 Mg6 Mn9 S24
1.0
   7.1024494019341091    0.0000000000000000   -0.0004643624378474
  -3.5508217701757854    6.1511342257733155   -0.0004643624378474
   0.0000000000000000    0.0000000000000000   16.6916503906250000
Li Mg S Mn S
3 6 6 9 18
direct
   0.3333333432674408    0.6666666865348816    0.1666666716337204 Li
   0.6666666865348816    0.3333333432674408    0.8333333134651184 Li
   0.0000000000000000    0.0000000000000000    0.5000000000000000 Li
   0.0000000000000000    0.0000000000000000    0.8805236816406250 Mg
   0.0000000000000000    0.0000000000000000    0.1194763183593750 Mg
   0.6666666865348816    0.3333333432674408    0.2138570547103882 Mg
   0.6666666865348816    0.3333333432674408    0.4528096914291382 Mg
   0.3333333432674408    0.6666666865348816    0.5471904277801514 Mg
   0.3333333432674408    0.6666666865348816    0.7861430048942566 Mg
   0.0000000000000000    0.0000000000000000    0.2597656250000000 S
   0.0000000000000000    0.0000000000000000    0.7402343750000000 S
   0.6666666865348816    0.3333333432674408    0.5930989980697632 S
   0.6666666865348816    0.3333333432674408    0.0735677182674408 S
   0.3333333432674408    0.6666666865348816    0.9264323115348816 S
   0.3333333432674408    0.6666666865348816    0.4069010615348816 S
   0.5000000000000000    0.5000000000000000    0.0000000000000000 Mn
   0.5000000000000000    0.0000000000000000    0.0000000000000000 Mn
   0.0000000000000000    0.5000000000000000    0.0000000000000000 Mn
   0.1666667461395264    0.8333333730697632    0.3333333432674408 Mn
   0.1666666865348816    0.3333333432674408    0.3333333432674408 Mn
   0.6666666865348816    0.8333333730697632    0.3333333432674408 Mn
   0.8333333730697632    0.1666667461395264    0.6666666865348816 Mn
   0.8333333730697632    0.6666666865348816    0.6666666865348816 Mn
   0.3333333432674408    0.1666666865348816    0.6666666865348816 Mn
   0.8457031250000000    0.6914062500000000    0.4097290039062500 S
   0.3085937500000000    0.1542968750000000    0.4097290039062500 S
   0.8457031250000000    0.1542968750000000    0.4097290039062500 S
   0.6914062500000000    0.8457031250000000    0.5902709960937500 S
   0.1542968750000000    0.3085937500000000    0.5902709960937500 S
   0.1542968750000000    0.8457031250000000    0.5902709960937500 S
   0.5123698711395264    0.0247396230697632    0.7430623769760132 S
   0.9752604365348816    0.4876302182674408    0.7430623769760132 S
   0.5123698115348816    0.4876302480697632    0.7430623769760132 S
   0.3580729961395264    0.1790364980697632    0.9236043691635132 S
   0.8209635615348816    0.6419271230697632    0.9236043691635132 S
   0.8209635615348816    0.1790364682674408    0.9236043691635132 S
   0.1790364980697632    0.3580729961395264    0.0763957500457764 S
   0.6419271230697632    0.8209635615348816    0.0763957500457764 S
   0.1790364682674408    0.8209635615348816    0.0763957500457764 S
   0.0247396230697632    0.5123698711395264    0.2569376826286316 S
   0.4876302182674408    0.9752604365348816    0.2569376826286316 S
   0.4876302480697632    0.5123698115348816    0.2569376826286316 S
