Ce2 Si4 Au4
1.0
   4.6658511062080414    0.0000000000000000   -0.0003050561674852
  -0.0003050761128941    4.6658510962343591   -0.0003050561674852
   0.0000000000000000    0.0000000000000000   10.1809492111206055
Ce Au Si
2 4 4
direct
   0.0000000000000000    0.0000000000000000    0.0000000000000000 Ce
   0.5000000000000000    0.5000000000000000    0.5000000000000000 Ce
   0.0000000000000000    0.5000000000000000    0.2500000000000000 Au
   0.5000000000000000    0.0000000000000000    0.2500000000000000 Au
   0.0000000000000000    0.5000000000000000    0.7500000000000000 Au
   0.5000000000000000    0.0000000000000000    0.7500000000000000 Au
   0.0000000000000000    0.0000000000000000    0.6134643554687500 Si
   0.0000000000000000    0.0000000000000000    0.3865356445312500 Si
   0.5000000000000000    0.5000000000000000    0.1134643554687500 Si
   0.5000000000000000    0.5000000000000000    0.8865356445312500 Si
