Nd2 V4 Fe20
1.0
   4.6396508117694104    0.0000000000000000   -0.0003033431763875
  -0.0005568996181489    8.5172538393219881   -0.0005568632089051
   0.0000000000000000    0.0000000000000000    8.5172538757324219
Nd Fe V Fe
2 8 4 12
direct
   0.0000000000000000    0.0000000000000000    0.0000000000000000 Nd
   0.5000000000000000    0.5000000000000000    0.5000000000000000 Nd
   0.0000000000000000    0.6423034667968750    0.0000000000000000 Fe
   0.0000000000000000    0.3576965332031250    0.0000000000000000 Fe
   0.5000000000000000    0.1423034667968750    0.5000000000000000 Fe
   0.5000000000000000    0.8576965332031250    0.5000000000000000 Fe
   0.0000000000000000    0.2731213569641113    0.5000000000000000 Fe
   0.0000000000000000    0.7268786430358887    0.5000000000000000 Fe
   0.5000000000000000    0.7731213569641113    0.0000000000000000 Fe
   0.5000000000000000    0.2268786430358887    0.0000000000000000 Fe
   0.0000000000000000    0.0000000000000000    0.3598327636718750 V
   0.0000000000000000    0.0000000000000000    0.6401672363281250 V
   0.5000000000000000    0.5000000000000000    0.8598327636718750 V
   0.5000000000000000    0.5000000000000000    0.1401672363281250 V
   0.0000000000000000    0.5000000000000000    0.7323760986328125 Fe
   0.0000000000000000    0.5000000000000000    0.2676239013671875 Fe
   0.5000000000000000    0.0000000000000000    0.2323760986328125 Fe
   0.5000000000000000    0.0000000000000000    0.7676239013671875 Fe
   0.2500000000000000    0.2500000000000000    0.2500000000000000 Fe
   0.7500000000000000    0.7500000000000000    0.2500000000000000 Fe
   0.7500000000000000    0.2500000000000000    0.7500000000000000 Fe
   0.2500000000000000    0.7500000000000000    0.7500000000000000 Fe
   0.7500000000000000    0.7500000000000000    0.7500000000000000 Fe
   0.2500000000000000    0.2500000000000000    0.7500000000000000 Fe
   0.2500000000000000    0.7500000000000000    0.2500000000000000 Fe
   0.7500000000000000    0.2500000000000000    0.2500000000000000 Fe
