Zn4 Ga8
1.0
   8.6073812025363541    0.0000000000000000   -3.5303644233246074
  -0.0004012040688147    4.1156496718131681   -0.0002690836661912
   0.0000000000000000    0.0000000000000000    8.0587482452392578
Zn Ga
4 8
direct
   0.8323974609375000    0.0000000000000000    0.3945312500000000 Zn
   0.1676025390625000    0.0000000000000000    0.6054687500000000 Zn
   0.3323974609375000    0.5000000000000000    0.3945312500000000 Zn
   0.6676025390625000    0.5000000000000000    0.6054687500000000 Zn
   0.8302612304687500    0.0000000000000000    0.9245758056640625 Ga
   0.1697387695312500    0.0000000000000000    0.0754241943359375 Ga
   0.3302612304687500    0.5000000000000000    0.9245758056640625 Ga
   0.6697387695312500    0.5000000000000000    0.0754241943359375 Ga
   0.5000305175781250    0.0000000000000000    0.3000259399414062 Ga
   0.4999694824218750    0.0000000000000000    0.6999740600585938 Ga
   0.0000305175781250    0.5000000000000000    0.3000259399414062 Ga
   0.9999694824218750    0.5000000000000000    0.6999740600585938 Ga
