Pa2 Al6
1.0
   6.1068520415437009    0.0000000000000000   -0.0003992696802335
  -3.0530795714575345    5.2888890126051189   -0.0003992696802335
   0.0000000000000000    0.0000000000000000    4.8623485565185547
Pa Al
2 6
direct
   0.6666666865348816    0.3333333432674408    0.2500000000000000 Pa
   0.3333333134651184    0.6666666269302368    0.7500000000000000 Pa
   0.8718261718750000    0.7436523437500000    0.2500000000000000 Al
   0.2563476562500000    0.1281738281250000    0.2500000000000000 Al
   0.8718261718750000    0.1281738281250000    0.2500000000000000 Al
   0.1281738281250000    0.2563476562500000    0.7500000000000000 Al
   0.7436523437500000    0.8718261718750000    0.7500000000000000 Al
   0.1281738281250000    0.8718261718750000    0.7500000000000000 Al
