Eu1 Si1 P1 Pt3
1.0
   5.5173482776974527    0.0000000000000000   -0.0003607275675892
  -2.7583611328163800    4.7783444704603486   -0.0003607275675892
   0.0000000000000000    0.0000000000000000    4.8885531425476074
Si Eu P Pt
1 1 1 3
direct
   0.0000000000000000    0.0000000000000000    0.0000000000000000 Si
   0.3333333432674408    0.6666666865348816    0.0000000000000000 Eu
   0.6666666865348816    0.3333333432674408    0.5000000000000000 P
   0.2922363281250000    0.1461181640625000    0.5000000000000000 Pt
   0.8538818359375000    0.1461181640625000    0.5000000000000000 Pt
   0.8538818359375000    0.7077636718750000    0.5000000000000000 Pt
