Er4 As4 O16
1.0
   7.2072472418285320    0.0000000000000000   -0.0004712141840071
  -0.0004712449932828    7.2072472264223837   -0.0004712141840071
   0.0000000000000000    0.0000000000000000    6.5391497611999512
As Er O
4 4 16
direct
   0.0000000000000000    0.7500000000000000    0.1250000000000000 As
   0.5000000000000000    0.2500000000000000    0.6250000000000000 As
   0.5000000000000000    0.7500000000000000    0.3750000000000000 As
   0.0000000000000000    0.2500000000000000    0.8750000000000000 As
   0.5000000000000000    0.2500000000000000    0.1250000000000000 Er
   0.0000000000000000    0.7500000000000000    0.6250000000000000 Er
   0.0000000000000000    0.2500000000000000    0.3750000000000000 Er
   0.5000000000000000    0.7500000000000000    0.8750000000000000 Er
   0.0000000000000000    0.0629272460937500    0.6961059570312500 O
   0.5000000000000000    0.9370727539062500    0.1961059570312500 O
   0.1870727539062500    0.7500000000000000    0.9461059570312500 O
   0.3129272460937500    0.2500000000000000    0.4461059570312500 O
   0.5000000000000000    0.0629272460937500    0.8038940429687500 O
   0.0000000000000000    0.9370727539062500    0.3038940429687500 O
   0.3129272460937500    0.7500000000000000    0.5538940429687500 O
   0.1870727539062500    0.2500000000000000    0.0538940429687500 O
   0.8129272460937500    0.2500000000000000    0.0538940429687500 O
   0.6870727539062500    0.7500000000000000    0.5538940429687500 O
   0.6870727539062500    0.2500000000000000    0.4461059570312500 O
   0.8129272460937500    0.7500000000000000    0.9461059570312500 O
   0.5000000000000000    0.5629272460937500    0.1961059570312500 O
   0.0000000000000000    0.4370727539062500    0.6961059570312500 O
   0.0000000000000000    0.5629272460937500    0.3038940429687500 O
   0.5000000000000000    0.4370727539062500    0.8038940429687500 O
