Cs2 Be2 H6 S2 O6 F2
1.0
   5.5435523868333405    0.0000000000000000   -0.0003624408080941
  -2.7714617007926101    4.8010387528747733   -0.0003624408080941
   0.0000000000000000    0.0000000000000000    8.6744489669799805
Cs Be F S H O
2 2 2 2 6 6
direct
   0.0000000000000000    0.0000000000000000    0.4988403320312500 Cs
   0.0000000000000000    0.0000000000000000    0.9988403320312500 Cs
   0.6666666865348816    0.3333333432674408    0.7451782226562500 Be
   0.3333333134651184    0.6666666269302368    0.2451782226562500 Be
   0.6666666865348816    0.3333333432674408    0.5548706054687500 F
   0.3333333134651184    0.6666666269302368    0.0548706054687500 F
   0.3333333432674408    0.6666666865348816    0.8098754882812500 S
   0.6666666269302368    0.3333333134651184    0.3098754882812500 S
   0.4761047363281250    0.0393676757812500    0.1597900390625000 H
   0.9606323242187500    0.4367370605468750    0.1597900390625000 H
   0.5632629394531250    0.5238952636718750    0.1597900390625000 H
   0.5238952636718750    0.9606323242187500    0.6597900390625000 H
   0.0393676757812500    0.5632629394531250    0.6597900390625000 H
   0.4367370605468750    0.4761047363281250    0.6597900390625000 H
   0.5075683593750000    0.9897270202636719    0.7904052734375000 O
   0.0102729797363281    0.5178413391113281    0.7904052734375000 O
   0.4821586608886719    0.4924316406250000    0.7904052734375000 O
   0.4924316406250000    0.0102729797363281    0.2904052734375000 O
   0.9897270202636719    0.4821586608886719    0.2904052734375000 O
   0.5178413391113281    0.5075683593750000    0.2904052734375000 O
