Nd4 Sn4 Ge4
1.0
   4.6396508117694104    0.0000000000000000   -0.0003033431763875
  -0.0011504832006427   17.5955542765873503   -0.0011504079838137
   0.0000000000000000    0.0000000000000000    4.2204513549804688
Ge Sn Nd
4 4 4
direct
   0.5000000000000000    0.2406005859375000    0.2500000000000000 Ge
   0.5000000000000000    0.7593994140625000    0.7500000000000000 Ge
   0.0000000000000000    0.7406005859375000    0.2500000000000000 Ge
   0.0000000000000000    0.2593994140625000    0.7500000000000000 Ge
   0.0000000000000000    0.4423828125000000    0.2500000000000000 Sn
   0.0000000000000000    0.5576171875000000    0.7500000000000000 Sn
   0.5000000000000000    0.9423828125000000    0.2500000000000000 Sn
   0.5000000000000000    0.0576171875000000    0.7500000000000000 Sn
   0.5000000000000000    0.6113281250000000    0.2500000000000000 Nd
   0.5000000000000000    0.3886718750000000    0.7500000000000000 Nd
   0.0000000000000000    0.1113281250000000    0.2500000000000000 Nd
   0.0000000000000000    0.8886718750000000    0.7500000000000000 Nd
