Tb4 Mn4 W4
1.0
   5.4911517979560793    0.0000000000000000   -0.0003590148258986
  -0.0003693166996139    5.6483502146538997   -0.0003692925542539
   0.0000000000000000    0.0000000000000000    8.0063514709472656
W Mn Tb
4 4 4
direct
   0.0000000000000000    0.0000000000000000    0.5000000000000000 W
   0.0000000000000000    0.5000000000000000    0.5000000000000000 W
   0.5000000000000000    0.5000000000000000    0.0000000000000000 W
   0.5000000000000000    0.0000000000000000    0.0000000000000000 W
   0.2500000000000000    0.2500000000000000    0.7500000000000000 Mn
   0.7500000000000000    0.2500000000000000    0.7500000000000000 Mn
   0.7500000000000000    0.7500000000000000    0.2500000000000000 Mn
   0.2500000000000000    0.7500000000000000    0.2500000000000000 Mn
   0.0000000000000000    0.2500000000000000    0.1276855468750000 Tb
   0.0000000000000000    0.7500000000000000    0.8723144531250000 Tb
   0.5000000000000000    0.7500000000000000    0.6276855468750000 Tb
   0.5000000000000000    0.2500000000000000    0.3723144531250000 Tb
