Mg4 Ti4 In4 S16
1.0
   7.6002502278965203    0.0000000000000000   -0.0004969089569459
  -0.0005055067434598    7.7312483457033254   -0.0005054736942034
   0.0000000000000000    0.0000000000000000   10.5739517211914062
In Ti Mg S
4 4 4 16
direct
   0.0000000000000000    0.0000000000000000    0.0000000000000000 In
   0.0000000000000000    0.5000000000000000    0.0000000000000000 In
   0.5000000000000000    0.5000000000000000    0.5000000000000000 In
   0.5000000000000000    0.0000000000000000    0.5000000000000000 In
   0.2500000000000000    0.2500000000000000    0.2500000000000000 Ti
   0.7500000000000000    0.2500000000000000    0.2500000000000000 Ti
   0.7500000000000000    0.7500000000000000    0.7500000000000000 Ti
   0.2500000000000000    0.7500000000000000    0.7500000000000000 Ti
   0.0000000000000000    0.2500000000000000    0.6300964355468750 Mg
   0.0000000000000000    0.7500000000000000    0.3699035644531250 Mg
   0.5000000000000000    0.7500000000000000    0.1300964355468750 Mg
   0.5000000000000000    0.2500000000000000    0.8699035644531250 Mg
   0.0000000000000000    0.0286254882812500    0.2472839355468750 S
   0.0000000000000000    0.4713745117187500    0.2472839355468750 S
   0.0000000000000000    0.5286254882812500    0.7527160644531250 S
   0.0000000000000000    0.9713745117187500    0.7527160644531250 S
   0.5000000000000000    0.5286254882812500    0.7472839355468750 S
   0.5000000000000000    0.9713745117187500    0.7472839355468750 S
   0.5000000000000000    0.0286254882812500    0.2527160644531250 S
   0.5000000000000000    0.4713745117187500    0.2527160644531250 S
   0.7571868896484375    0.2500000000000000    0.0122070312500000 S
   0.2428131103515625    0.2500000000000000    0.0122070312500000 S
   0.2428131103515625    0.7500000000000000    0.9877929687500000 S
   0.7571868896484375    0.7500000000000000    0.9877929687500000 S
   0.2571868896484375    0.7500000000000000    0.5122070312500000 S
   0.7428131103515625    0.7500000000000000    0.5122070312500000 S
   0.7428131103515625    0.2500000000000000    0.4877929687500000 S
   0.2571868896484375    0.2500000000000000    0.4877929687500000 S
