Rb8 Li4 Tb4 Cl24
1.0
  10.8228502042241512    0.0000000000000000   -0.0007076044926025
  -0.0007076507577248   10.8228501810893221   -0.0007076044926025
   0.0000000000000000    0.0000000000000000   10.8228502273559570
Tb Li Rb Cl
4 4 8 24
direct
   0.0000000000000000    0.0000000000000000    0.0000000000000000 Tb
   0.0000000000000000    0.5000000000000000    0.5000000000000000 Tb
   0.5000000000000000    0.0000000000000000    0.5000000000000000 Tb
   0.5000000000000000    0.5000000000000000    0.0000000000000000 Tb
   0.5000000000000000    0.0000000000000000    0.0000000000000000 Li
   0.0000000000000000    0.5000000000000000    0.0000000000000000 Li
   0.0000000000000000    0.0000000000000000    0.5000000000000000 Li
   0.5000000000000000    0.5000000000000000    0.5000000000000000 Li
   0.2500000000000000    0.2500000000000000    0.2500000000000000 Rb
   0.7500000000000000    0.7500000000000000    0.2500000000000000 Rb
   0.7500000000000000    0.2500000000000000    0.7500000000000000 Rb
   0.2500000000000000    0.7500000000000000    0.7500000000000000 Rb
   0.2500000000000000    0.2500000000000000    0.7500000000000000 Rb
   0.7500000000000000    0.7500000000000000    0.7500000000000000 Rb
   0.2500000000000000    0.7500000000000000    0.2500000000000000 Rb
   0.7500000000000000    0.2500000000000000    0.2500000000000000 Rb
   0.7469787597656250    0.0000000000000000    0.0000000000000000 Cl
   0.2530212402343750    0.0000000000000000    0.0000000000000000 Cl
   0.0000000000000000    0.7469787597656250    0.0000000000000000 Cl
   0.0000000000000000    0.2530212402343750    0.0000000000000000 Cl
   0.0000000000000000    0.0000000000000000    0.7469787597656250 Cl
   0.0000000000000000    0.0000000000000000    0.2530212402343750 Cl
   0.7469787597656250    0.5000000000000000    0.5000000000000000 Cl
   0.2530212402343750    0.5000000000000000    0.5000000000000000 Cl
   0.0000000000000000    0.2469787597656250    0.5000000000000000 Cl
   0.0000000000000000    0.7530212402343750    0.5000000000000000 Cl
   0.0000000000000000    0.5000000000000000    0.2469787597656250 Cl
   0.0000000000000000    0.5000000000000000    0.7530212402343750 Cl
   0.2469787597656250    0.0000000000000000    0.5000000000000000 Cl
   0.7530212402343750    0.0000000000000000    0.5000000000000000 Cl
   0.5000000000000000    0.7469787597656250    0.5000000000000000 Cl
   0.5000000000000000    0.2530212402343750    0.5000000000000000 Cl
   0.5000000000000000    0.0000000000000000    0.2469787597656250 Cl
   0.5000000000000000    0.0000000000000000    0.7530212402343750 Cl
   0.2469787597656250    0.5000000000000000    0.0000000000000000 Cl
   0.7530212402343750    0.5000000000000000    0.0000000000000000 Cl
   0.5000000000000000    0.2469787597656250    0.0000000000000000 Cl
   0.5000000000000000    0.7530212402343750    0.0000000000000000 Cl
   0.5000000000000000    0.5000000000000000    0.7469787597656250 Cl
   0.5000000000000000    0.5000000000000000    0.2530212402343750 Cl
