Li8 Eu4 Pb4
1.0
   6.8666496130093755    0.0000000000000000   -0.0004489457050229
  -0.0004489750583243    6.8666495983312856   -0.0004489457050229
   0.0000000000000000    0.0000000000000000    6.8666496276855469
Pb Eu Li
4 4 8
direct
   0.0000000000000000    0.0000000000000000    0.0000000000000000 Pb
   0.0000000000000000    0.5000000000000000    0.5000000000000000 Pb
   0.5000000000000000    0.0000000000000000    0.5000000000000000 Pb
   0.5000000000000000    0.5000000000000000    0.0000000000000000 Pb
   0.5000000000000000    0.0000000000000000    0.0000000000000000 Eu
   0.0000000000000000    0.5000000000000000    0.0000000000000000 Eu
   0.0000000000000000    0.0000000000000000    0.5000000000000000 Eu
   0.5000000000000000    0.5000000000000000    0.5000000000000000 Eu
   0.2500000000000000    0.2500000000000000    0.2500000000000000 Li
   0.7500000000000000    0.7500000000000000    0.2500000000000000 Li
   0.7500000000000000    0.2500000000000000    0.7500000000000000 Li
   0.2500000000000000    0.7500000000000000    0.7500000000000000 Li
   0.2500000000000000    0.2500000000000000    0.7500000000000000 Li
   0.7500000000000000    0.7500000000000000    0.7500000000000000 Li
   0.2500000000000000    0.7500000000000000    0.2500000000000000 Li
   0.7500000000000000    0.2500000000000000    0.2500000000000000 Li
