Mg3 Ti3 Cl18
1.0
   6.1068520415437009    0.0000000000000000   -0.0003992696802335
  -3.0530795714575345    5.2888890126051189   -0.0003992696802335
   0.0000000000000000    0.0000000000000000   14.5825490951538086
Ti Mg Cl
3 3 18
direct
   0.0000000000000000    0.0000000000000000    0.0000000000000000 Ti
   0.6666666865348816    0.3333333432674408    0.3333333432674408 Ti
   0.3333333432674408    0.6666666865348816    0.6666666865348816 Ti
   0.3333333432674408    0.6666666865348816    0.1666666716337204 Mg
   0.6666666269302368    0.3333333134651184    0.8333333134651184 Mg
   0.0000000000000000    0.0000000000000000    0.5000000000000000 Mg
   0.3244018554687500    0.0023193359375000    0.0822753906250000 Cl
   0.9976806640625000    0.3220825195312500    0.0822753906250000 Cl
   0.6779174804687500    0.6755981445312500    0.0822753906250000 Cl
   0.6755981445312500    0.9976806640625000    0.9177246093750000 Cl
   0.0023193359375000    0.6779174804687500    0.9177246093750000 Cl
   0.3220825195312500    0.3244018554687500    0.9177246093750000 Cl
   0.9910685420036316    0.3356526792049408    0.4156087338924408 Cl
   0.6643473505973816    0.6554158926010132    0.4156087338924408 Cl
   0.3445841670036316    0.0089314877986908    0.4156087338924408 Cl
   0.3422648310661316    0.3310140073299408    0.2510579526424408 Cl
   0.6689860224723816    0.0112508237361908    0.2510579526424408 Cl
   0.9887492060661316    0.6577352285385132    0.2510579526424408 Cl
   0.6577352285385132    0.6689860224723816    0.7489420771598816 Cl
   0.3310140073299408    0.9887492060661316    0.7489420771598816 Cl
   0.0112508237361908    0.3422648310661316    0.7489420771598816 Cl
   0.0089314877986908    0.6643473505973816    0.5843912959098816 Cl
   0.3356526792049408    0.3445841670036316    0.5843912959098816 Cl
   0.6554158926010132    0.9910685420036316    0.5843912959098816 Cl
