Mn6 V3 Ga3 Ni3 As6
1.0
   4.1549482256776855    0.0000000000000000   -0.0002716530281342
  -2.0772383974565130    3.5984267948916853   -0.0002716530281342
   0.0000000000000000    0.0000000000000000   22.0364494323730469
V Mn Ni Ga As
3 6 3 3 6
direct
   0.0000000000000000    0.0000000000000000    0.9964599609375000 V
   0.6666666865348816    0.3333333432674408    0.3297933340072632 V
   0.3333333432674408    0.6666666865348816    0.6631267070770264 V
   0.6666666865348816    0.3333333432674408    0.7561645507812500 Mn
   0.3333333730697632    0.6666666865348816    0.0894979238510132 Mn
   0.0000000000000000    0.0000000000000000    0.4228312969207764 Mn
   0.3333333432674408    0.6666666865348816    0.8116455078125000 Mn
   0.0000000000000000    0.0000000000000000    0.1449788808822632 Mn
   0.6666666865348816    0.3333333730697632    0.4783122539520264 Mn
   0.6666666865348816    0.3333333432674408    0.9175415039062500 Ni
   0.3333333730697632    0.6666666865348816    0.2508748769760132 Ni
   0.0000000000000000    0.0000000000000000    0.5842082500457764 Ni
   0.0000000000000000    0.0000000000000000    0.8593139648437500 Ga
   0.6666666865348816    0.3333333432674408    0.1926473379135132 Ga
   0.3333333432674408    0.6666666865348816    0.5259807109832764 Ga
   0.3333333432674408    0.6666666865348816    0.3901367187500000 As
   0.0000000000000000    0.0000000000000000    0.7234700918197632 As
   0.6666666865348816    0.3333333730697632    0.0568034648895264 As
   0.6666666865348816    0.3333333432674408    0.6079101562500000 As
   0.3333333730697632    0.6666666865348816    0.9412435293197632 As
   0.0000000000000000    0.0000000000000000    0.2745769023895264 As
