Ti4 Nb4 In4
1.0
   7.5609512167500466    0.0000000000000000   -0.0004943395638270
  -0.0004943718851034    7.5609512005878239   -0.0004943395638270
   0.0000000000000000    0.0000000000000000    4.4300508499145508
In Nb Ti
4 4 4
direct
   0.0000000000000000    0.5000000000000000    0.2500000000000000 In
   0.0000000000000000    0.5000000000000000    0.7500000000000000 In
   0.5000000000000000    0.0000000000000000    0.2500000000000000 In
   0.5000000000000000    0.0000000000000000    0.7500000000000000 In
   0.7967834472656250    0.7967834472656250    0.0000000000000000 Nb
   0.2032165527343750    0.2032165527343750    0.0000000000000000 Nb
   0.7032165527343750    0.2967834472656250    0.5000000000000000 Nb
   0.2967834472656250    0.7032165527343750    0.5000000000000000 Nb
   0.6425933837890625    0.6425933837890625    0.5000000000000000 Ti
   0.3574066162109375    0.3574066162109375    0.5000000000000000 Ti
   0.8574066162109375    0.1425933837890625    0.0000000000000000 Ti
   0.1425933837890625    0.8574066162109375    0.0000000000000000 Ti
