Li2 Mn1 N2
1.0
   2.8056509434815986    0.0000000000000000   -0.0001834351556956
  -1.4026663036720519    2.4298568799832982   -0.0001834351556956
   0.0000000000000000    0.0000000000000000    5.9627513885498047
Mn Li N
1 2 2
direct
   0.0000000000000000    0.0000000000000000    0.0000000000000000 Mn
   0.6666666865348816    0.3333333432674408    0.3421630859375000 Li
   0.3333333432674408    0.6666666865348816    0.6578369140625000 Li
   0.6666666865348816    0.3333333432674408    0.8103637695312500 N
   0.3333333432674408    0.6666666865348816    0.1896362304687500 N
