Lu4 Mg4 Ge4
1.0
   7.0238480417810596    0.0000000000000000   -0.0004592234333782
  -0.0002930843288534    4.4824480818816710   -0.0002930651674491
   0.0000000000000000    0.0000000000000000    7.7181501388549805
Mg Ge Lu
4 4 4
direct
   0.1514892578125000    0.2500000000000000    0.0679626464843750 Mg
   0.3485107421875000    0.7500000000000000    0.5679626464843750 Mg
   0.8485107421875000    0.7500000000000000    0.9320373535156250 Mg
   0.6514892578125000    0.2500000000000000    0.4320373535156250 Mg
   0.2665710449218750    0.2500000000000000    0.3858032226562500 Ge
   0.2334289550781250    0.7500000000000000    0.8858032226562500 Ge
   0.7334289550781250    0.7500000000000000    0.6141967773437500 Ge
   0.7665710449218750    0.2500000000000000    0.1141967773437500 Ge
   0.5219421386718750    0.2500000000000000    0.8137512207031250 Lu
   0.9780578613281250    0.7500000000000000    0.3137512207031250 Lu
   0.4780578613281250    0.7500000000000000    0.1862487792968750 Lu
   0.0219421386718750    0.2500000000000000    0.6862487792968750 Lu
