Ti4 Ge4 Ru8
1.0
   6.5653500416623798    0.0000000000000000   -0.0004292465568058
  -0.0004292746221229    6.5653500276283454   -0.0004292465568058
   0.0000000000000000    0.0000000000000000    6.5653500556945801
Ti Ge Ru
4 4 8
direct
   0.0000000000000000    0.0000000000000000    0.0000000000000000 Ti
   0.0000000000000000    0.5000000000000000    0.5000000000000000 Ti
   0.5000000000000000    0.0000000000000000    0.5000000000000000 Ti
   0.5000000000000000    0.5000000000000000    0.0000000000000000 Ti
   0.5000000000000000    0.0000000000000000    0.0000000000000000 Ge
   0.0000000000000000    0.5000000000000000    0.0000000000000000 Ge
   0.0000000000000000    0.0000000000000000    0.5000000000000000 Ge
   0.5000000000000000    0.5000000000000000    0.5000000000000000 Ge
   0.2500000000000000    0.2500000000000000    0.2500000000000000 Ru
   0.7500000000000000    0.7500000000000000    0.2500000000000000 Ru
   0.7500000000000000    0.2500000000000000    0.7500000000000000 Ru
   0.2500000000000000    0.7500000000000000    0.7500000000000000 Ru
   0.2500000000000000    0.2500000000000000    0.7500000000000000 Ru
   0.7500000000000000    0.7500000000000000    0.7500000000000000 Ru
   0.2500000000000000    0.7500000000000000    0.2500000000000000 Ru
   0.7500000000000000    0.2500000000000000    0.2500000000000000 Ru
