Co2 Si2 Ru2
1.0
   3.9060501968822656    0.0000000000000000   -0.0002553799244645
  -1.9528035033536495    3.3828666272635846   -0.0002553799244645
   0.0000000000000000    0.0000000000000000    5.5828514099121094
Ru Si Co
2 2 2
direct
   0.0000000000000000    0.0000000000000000    0.0000000000000000 Ru
   0.0000000000000000    0.0000000000000000    0.5000000000000000 Ru
   0.3333333432674408    0.6666666865348816    0.2500000000000000 Si
   0.6666666269302368    0.3333333134651184    0.7500000000000000 Si
   0.6666666865348816    0.3333333432674408    0.2500000000000000 Co
   0.3333333134651184    0.6666666269302368    0.7500000000000000 Co
