Np6 B3 C9
1.0
   4.1025476368004243    0.0000000000000000   -0.0002682270459387
  -2.0510410757684849    3.5530448375621724   -0.0002682270459387
   0.0000000000000000    0.0000000000000000   24.1586494445800781
B C Np
3 9 6
direct
   0.0000000000000000    0.0000000000000000    0.0000000000000000 B
   0.6666666865348816    0.3333333432674408    0.3333333432674408 B
   0.3333333432674408    0.6666666865348816    0.6666666865348816 B
   0.3333333432674408    0.6666666865348816    0.1666666716337204 C
   0.6666666865348816    0.3333333432674408    0.8333333134651184 C
   0.0000000000000000    0.0000000000000000    0.5000000000000000 C
   0.3333333432674408    0.6666666865348816    0.6016845703125000 C
   0.6666666865348816    0.3333333432674408    0.3983154296875000 C
   0.0000000000000000    0.0000000000000000    0.9350179433822632 C
   0.3333333730697632    0.6666666865348816    0.7316488027572632 C
   0.6666666865348816    0.3333333730697632    0.2683513164520264 C
   0.0000000000000000    0.0000000000000000    0.0649821162223816 C
   0.0000000000000000    0.0000000000000000    0.2362670898437500 Np
   0.0000000000000000    0.0000000000000000    0.7637329101562500 Np
   0.6666666865348816    0.3333333432674408    0.5696004629135132 Np
   0.6666666865348816    0.3333333432674408    0.0970662534236908 Np
   0.3333333432674408    0.6666666865348816    0.9029337763786316 Np
   0.3333333432674408    0.6666666865348816    0.4303995966911316 Np
