Al4 Fe2 B4 C4
1.0
   3.7357492367054808    0.0000000000000000   -0.0002442455446808
  -0.0002442615141243    3.7357492287199761   -0.0002442455446808
   0.0000000000000000    0.0000000000000000    9.3425502777099609
B Fe B C Al
2 2 2 4 4
direct
   0.7500000000000000    0.2500000000000000    0.0000000000000000 B
   0.2500000000000000    0.7500000000000000    0.0000000000000000 B
   0.7500000000000000    0.2500000000000000    0.5000000000000000 Fe
   0.2500000000000000    0.7500000000000000    0.5000000000000000 Fe
   0.7500000000000000    0.7500000000000000    0.3684082031250000 B
   0.2500000000000000    0.2500000000000000    0.6315917968750000 B
   0.7500000000000000    0.7500000000000000    0.5496826171875000 C
   0.2500000000000000    0.2500000000000000    0.4503173828125000 C
   0.7500000000000000    0.7500000000000000    0.9346923828125000 C
   0.2500000000000000    0.2500000000000000    0.0653076171875000 C
   0.7500000000000000    0.7500000000000000    0.7420654296875000 Al
   0.2500000000000000    0.2500000000000000    0.2579345703125000 Al
   0.7500000000000000    0.7500000000000000    0.1392822265625000 Al
   0.2500000000000000    0.2500000000000000    0.8607177734375000 Al
