La3 Zn3 Pd3
1.0
   7.5478491621821018    0.0000000000000000   -0.0004934829435745
  -3.7734963822172274    6.5368763204183820   -0.0004934829435745
   0.0000000000000000    0.0000000000000000    3.8012521266937256
Pd La Zn
3 3 3
direct
   0.0000000000000000    0.0000000000000000    0.0000000000000000 Pd
   0.6666666865348816    0.3333333432674408    0.5000000000000000 Pd
   0.3333333432674408    0.6666666865348816    0.5000000000000000 Pd
   0.5926971435546875    0.0000000000000000    0.0000000000000000 La
   0.0000000000000000    0.5926971435546875    0.0000000000000000 La
   0.4073028564453125    0.4073028564453125    0.0000000000000000 La
   0.7572021484375000    0.7572021484375000    0.5000000000000000 Zn
   0.2427978515625000    0.0000000000000000    0.5000000000000000 Zn
   0.0000000000000000    0.2427978515625000    0.5000000000000000 Zn
