La3 Ta6 Cr2
1.0
   5.7400498267514992    0.0000000000000000   -0.0003752879295684
  -2.8696992732074453    4.9712169631733616   -0.0003752879295684
   0.0000000000000000    0.0000000000000000    6.9976515769958496
La Cr La Ta
1 2 2 6
direct
   0.0000000000000000    0.0000000000000000    0.0000000000000000 La
   0.6666666865348816    0.3333333432674408    0.0000000000000000 Cr
   0.3333333134651184    0.6666666269302368    0.0000000000000000 Cr
   0.0000000000000000    0.0000000000000000    0.6738891601562500 La
   0.0000000000000000    0.0000000000000000    0.3261108398437500 La
   0.9431152343750000    0.4715576171875000    0.5000000000000000 Ta
   0.5284423828125000    0.4715576171875000    0.5000000000000000 Ta
   0.5284423828125000    0.0568847656250000    0.5000000000000000 Ta
   0.0568847656250000    0.5284423828125000    0.5000000000000000 Ta
   0.4715576171875000    0.5284423828125000    0.5000000000000000 Ta
   0.4715576171875000    0.9431152343750000    0.5000000000000000 Ta
