Tm3 Ga3 Au3
1.0
   7.7050518824882008    0.0000000000000000   -0.0005037609525129
  -3.8520888240643658    6.6730230183443382   -0.0005037609525129
   0.0000000000000000    0.0000000000000000    3.8667473793029785
Au Tm Ga
3 3 3
direct
   0.0000000000000000    0.0000000000000000    0.0000000000000000 Au
   0.6666666865348816    0.3333333432674408    0.5000000000000000 Au
   0.3333333432674408    0.6666666865348816    0.5000000000000000 Au
   0.4003295898437500    0.4003295898437500    0.0000000000000000 Tm
   0.5996704101562500    0.0000000000000000    0.0000000000000000 Tm
   0.0000000000000000    0.5996704101562500    0.0000000000000000 Tm
   0.2579040527343750    0.0000000000000000    0.5000000000000000 Ga
   0.0000000000000000    0.2579040527343750    0.5000000000000000 Ga
   0.7420959472656250    0.7420959472656250    0.5000000000000000 Ga
