Dy16 Ho8 Mn4 Co4 Sn2
1.0
   9.2901496688647569    0.0000000000000000   -0.0006073956045398
  -0.0006022961955044    9.2115516268812758   -0.0006022568183019
   0.0000000000000000    0.0000000000000000    9.9713535308837891
Sn Mn Co Dy Ho
2 4 4 16 8
direct
   0.0000000000000000    0.0000000000000000    0.0000000000000000 Sn
   0.5000000000000000    0.5000000000000000    0.5000000000000000 Sn
   0.0000000000000000    0.8785705566406250    0.5000000000000000 Mn
   0.0000000000000000    0.1214294433593750    0.5000000000000000 Mn
   0.5000000000000000    0.3785705566406250    0.0000000000000000 Mn
   0.5000000000000000    0.6214294433593750    0.0000000000000000 Mn
   0.0000000000000000    0.5000000000000000    0.6483154296875000 Co
   0.0000000000000000    0.5000000000000000    0.3516845703125000 Co
   0.5000000000000000    0.0000000000000000    0.1483154296875000 Co
   0.5000000000000000    0.0000000000000000    0.8516845703125000 Co
   0.0000000000000000    0.2512741088867188    0.7839660644531250 Dy
   0.0000000000000000    0.7487258911132812    0.7839660644531250 Dy
   0.0000000000000000    0.2512741088867188    0.2160339355468750 Dy
   0.0000000000000000    0.7487258911132812    0.2160339355468750 Dy
   0.5000000000000000    0.7512741088867188    0.2839660644531250 Dy
   0.5000000000000000    0.2487258911132812    0.2839660644531250 Dy
   0.5000000000000000    0.7512741088867188    0.7160339355468750 Dy
   0.5000000000000000    0.2487258911132812    0.7160339355468750 Dy
   0.2340698242187500    0.0000000000000000    0.6724243164062500 Dy
   0.7659301757812500    0.0000000000000000    0.6724243164062500 Dy
   0.7659301757812500    0.0000000000000000    0.3275756835937500 Dy
   0.2340698242187500    0.0000000000000000    0.3275756835937500 Dy
   0.7340698242187500    0.5000000000000000    0.1724243164062500 Dy
   0.2659301757812500    0.5000000000000000    0.1724243164062500 Dy
   0.2659301757812500    0.5000000000000000    0.8275756835937500 Dy
   0.7340698242187500    0.5000000000000000    0.8275756835937500 Dy
   0.8033447265625000    0.6762542724609375    0.5000000000000000 Ho
   0.1966552734375000    0.3237457275390625    0.5000000000000000 Ho
   0.1966552734375000    0.6762542724609375    0.5000000000000000 Ho
   0.8033447265625000    0.3237457275390625    0.5000000000000000 Ho
   0.3033447265625000    0.1762542724609375    0.0000000000000000 Ho
   0.6966552734375000    0.8237457275390625    0.0000000000000000 Ho
   0.6966552734375000    0.1762542724609375    0.0000000000000000 Ho
   0.3033447265625000    0.8237457275390625    0.0000000000000000 Ho
