Ca1 Fe5 O8 F2
1.0
   3.3689508366105367    0.0000000000000000   -0.0002202640434229
  -0.0007993006198745   12.2245482875849927   -0.0007992483628246
   0.0000000000000000    0.0000000000000000    5.0457515716552734
O Fe O Ca O Fe F Fe
1 1 3 1 4 2 2 2
direct
   0.0000000000000000    0.0000000000000000    0.9040527343750000 O
   0.0000000000000000    0.0000000000000000    0.2478027343750000 Fe
   0.0000000000000000    0.5000000000000000    0.4079589843750000 O
   0.0000000000000000    0.5000000000000000    0.7812500000000000 O
   0.0000000000000000    0.5000000000000000    0.5579833984375000 O
   0.0000000000000000    0.5000000000000000    0.0324707031250000 Ca
   0.0000000000000000    0.2674560546875000    0.8497161865234375 O
   0.0000000000000000    0.7325439453125000    0.8497161865234375 O
   0.0000000000000000    0.8510742187500000    0.3200073242187500 O
   0.0000000000000000    0.1489257812500000    0.3200073242187500 O
   0.0000000000000000    0.7024459838867188    0.4851074218750000 Fe
   0.0000000000000000    0.2975540161132812    0.4851074218750000 Fe
   0.5000000000000000    0.6655235290527344    0.2208251953125000 F
   0.5000000000000000    0.3344764709472656    0.2208251953125000 F
   0.5000000000000000    0.1958007812500000    0.9929199218750000 Fe
   0.5000000000000000    0.8041992187500000    0.9929199218750000 Fe
