Cu4 Ni4 Ge8 O24
1.0
  11.8492343839633314    0.0000000000000000   -3.8543378181686201
  -0.0005249724364969    5.8317532178435725   -0.0003812835542900
   0.0000000000000000    0.0000000000000000    5.9234528541564941
Cu Ni O Ge
4 4 24 8
direct
   0.2500000000000000    0.2500000000000000    0.0000000000000000 Cu
   0.7500000000000000    0.2500000000000000    0.5000000000000000 Cu
   0.7500000000000000    0.7500000000000000    0.0000000000000000 Cu
   0.2500000000000000    0.7500000000000000    0.5000000000000000 Cu
   0.5000000000000000    0.4324951171875000    0.2500000000000000 Ni
   0.5000000000000000    0.5675048828125000    0.7500000000000000 Ni
   0.0000000000000000    0.9324951171875000    0.2500000000000000 Ni
   0.0000000000000000    0.0675048828125000    0.7500000000000000 Ni
   0.7893981933593750    0.8544921875000000    0.2647705078125000 O
   0.2106018066406250    0.8544921875000000    0.2352294921875000 O
   0.2106018066406250    0.1455078125000000    0.7352294921875000 O
   0.7893981933593750    0.1455078125000000    0.7647705078125000 O
   0.2893981933593750    0.3544921875000000    0.2647705078125000 O
   0.7106018066406250    0.3544921875000000    0.2352294921875000 O
   0.7106018066406250    0.6455078125000000    0.7352294921875000 O
   0.2893981933593750    0.6455078125000000    0.7647705078125000 O
   0.8865966796875000    0.5125427246093750    0.5860595703125000 O
   0.1134033203125000    0.5125427246093750    0.9139404296875000 O
   0.1134033203125000    0.4874572753906250    0.4139404296875000 O
   0.8865966796875000    0.4874572753906250    0.0860595703125000 O
   0.3865966796875000    0.0125427246093750    0.5860595703125000 O
   0.6134033203125000    0.0125427246093750    0.9139404296875000 O
   0.6134033203125000    0.9874572753906250    0.4139404296875000 O
   0.3865966796875000    0.9874572753906250    0.0860595703125000 O
   0.0642700195312500    0.1597290039062500    0.0740966796875000 O
   0.9357299804687500    0.1597290039062500    0.4259033203125000 O
   0.9357299804687500    0.8402709960937500    0.9259033203125000 O
   0.0642700195312500    0.8402709960937500    0.5740966796875000 O
   0.5642700195312500    0.6597290039062500    0.0740966796875000 O
   0.4357299804687500    0.6597290039062500    0.4259033203125000 O
   0.4357299804687500    0.3402709960937500    0.9259033203125000 O
   0.5642700195312500    0.3402709960937500    0.5740966796875000 O
   0.3687438964843750    0.1139221191406250    0.8112792968750000 Ge
   0.6312561035156250    0.1139221191406250    0.6887207031250000 Ge
   0.6312561035156250    0.8860778808593750    0.1887207031250000 Ge
   0.3687438964843750    0.8860778808593750    0.3112792968750000 Ge
   0.8687438964843750    0.6139221191406250    0.8112792968750000 Ge
   0.1312561035156250    0.6139221191406250    0.6887207031250000 Ge
   0.1312561035156250    0.3860778808593750    0.1887207031250000 Ge
   0.8687438964843750    0.3860778808593750    0.3112792968750000 Ge
