Ag8 P4 Pt8
1.0
   6.6963486528325902    0.0000000000000000   -0.0004378113252392
  -0.0004378399505444    6.6963486385185345   -0.0004378113252392
   0.0000000000000000    0.0000000000000000    5.9103507995605469
P Ag Pt
4 8 8
direct
   0.0000000000000000    0.0000000000000000    0.0000000000000000 P
   0.5000000000000000    0.0000000000000000    0.7500000000000000 P
   0.5000000000000000    0.5000000000000000    0.5000000000000000 P
   0.0000000000000000    0.5000000000000000    0.2500000000000000 P
   0.5451660156250000    0.2500000000000000    0.1250000000000000 Ag
   0.4548339843750000    0.7500000000000000    0.1250000000000000 Ag
   0.2500000000000000    0.4548339843750000    0.8750000000000000 Ag
   0.7500000000000000    0.5451660156250000    0.8750000000000000 Ag
   0.9548339843750000    0.2500000000000000    0.6250000000000000 Ag
   0.0451660156250000    0.7500000000000000    0.6250000000000000 Ag
   0.7500000000000000    0.9548339843750000    0.3750000000000000 Ag
   0.2500000000000000    0.0451660156250000    0.3750000000000000 Ag
   0.9423217773437500    0.2500000000000000    0.1250000000000000 Pt
   0.0576782226562500    0.7500000000000000    0.1250000000000000 Pt
   0.2500000000000000    0.0576782226562500    0.8750000000000000 Pt
   0.7500000000000000    0.9423217773437500    0.8750000000000000 Pt
   0.5576782226562500    0.2500000000000000    0.6250000000000000 Pt
   0.4423217773437500    0.7500000000000000    0.6250000000000000 Pt
   0.7500000000000000    0.5576782226562500    0.3750000000000000 Pt
   0.2500000000000000    0.4423217773437500    0.3750000000000000 Pt
