Ca2 Nb2 O12
1.0
   5.5322967669524736    0.0000000000000000   -5.0572161204919865
  -0.0011935497843094    8.0456503764517819   -0.0005260294938489
   0.0000000000000000    0.0000000000000000    5.1767501831054688
Nb Ca O
2 2 12
direct
   0.5000000000000000    0.9901428222656250    0.0000000000000000 Nb
   0.0000000000000000    0.4901428222656250    0.0000000000000000 Nb
   0.5000000000000000    0.7714233398437500    0.5000000000000000 Ca
   0.0000000000000000    0.2714233398437500    0.5000000000000000 Ca
   0.8041992187500000    0.3117065429687500    0.7292175292968750 O
   0.1958007812500000    0.3117065429687500    0.2707824707031250 O
   0.3041992187500000    0.8117065429687500    0.7292175292968750 O
   0.6958007812500000    0.8117065429687500    0.2707824707031250 O
   0.3446655273437500    0.9903259277343750    0.1612548828125000 O
   0.6553344726562500    0.9903259277343750    0.8387451171875000 O
   0.8446655273437500    0.4903259277343750    0.1612548828125000 O
   0.1553344726562500    0.4903259277343750    0.8387451171875000 O
   0.3314208984375000    0.1697998046875000    0.7457733154296875 O
   0.6685791015625000    0.1697998046875000    0.2542266845703125 O
   0.8314208984375000    0.6697998046875000    0.7457733154296875 O
   0.1685791015625000    0.6697998046875000    0.2542266845703125 O
