Li3 Mg6 Mn9 S24
1.0
   7.1024494019341091    0.0000000000000000   -0.0004643624378474
  -3.5508217701757854    6.1511342257733155   -0.0004643624378474
   0.0000000000000000    0.0000000000000000   16.6916503906250000
Li Mg S Mn S
3 6 6 9 18
direct
   0.3333333432674408    0.6666666865348816    0.1666666716337204 Li
   0.6666666865348816    0.3333333432674408    0.8333333134651184 Li
   0.0000000000000000    0.0000000000000000    0.5000000000000000 Li
   0.0000000000000000    0.0000000000000000    0.8784484863281250 Mg
   0.0000000000000000    0.0000000000000000    0.1215515136718750 Mg
   0.6666666865348816    0.3333333432674408    0.2117818593978882 Mg
   0.6666666865348816    0.3333333432674408    0.4548848867416382 Mg
   0.3333333432674408    0.6666666865348816    0.5451152324676514 Mg
   0.3333333432674408    0.6666666865348816    0.7882182002067566 Mg
   0.0000000000000000    0.0000000000000000    0.2667846679687500 S
   0.0000000000000000    0.0000000000000000    0.7332153320312500 S
   0.6666666865348816    0.3333333432674408    0.6001180410385132 S
   0.6666666865348816    0.3333333432674408    0.0665486752986908 S
   0.3333333432674408    0.6666666865348816    0.9334513545036316 S
   0.3333333432674408    0.6666666865348816    0.3998820185661316 S
   0.5000000000000000    0.5000000000000000    0.0000000000000000 Mn
   0.5000000000000000    0.0000000000000000    0.0000000000000000 Mn
   0.0000000000000000    0.5000000000000000    0.0000000000000000 Mn
   0.1666667461395264    0.8333333730697632    0.3333333432674408 Mn
   0.1666666865348816    0.3333333432674408    0.3333333432674408 Mn
   0.6666666865348816    0.8333333730697632    0.3333333432674408 Mn
   0.8333333730697632    0.1666667461395264    0.6666666865348816 Mn
   0.8333333730697632    0.6666666865348816    0.6666666865348816 Mn
   0.3333333432674408    0.1666666865348816    0.6666666865348816 Mn
   0.1531982421875000    0.3063964843750000    0.5981292724609375 S
   0.6936035156250000    0.8468017578125000    0.5981292724609375 S
   0.1531982421875000    0.8468017578125000    0.5981292724609375 S
   0.3063964843750000    0.1531982421875000    0.4018707275390625 S
   0.8468017578125000    0.6936035156250000    0.4018707275390625 S
   0.8468017578125000    0.1531982421875000    0.4018707275390625 S
   0.8198649287223816    0.6397298574447632    0.9314626455307007 S
   0.3602702021598816    0.1801351010799408    0.9314626455307007 S
   0.8198649287223816    0.1801351010799408    0.9314626455307007 S
   0.9730631709098816    0.4865315854549408    0.7352041006088257 S
   0.5134684443473816    0.0269368588924408    0.7352041006088257 S
   0.5134684443473816    0.4865315854549408    0.7352041006088257 S
   0.4865315854549408    0.9730631709098816    0.2647960186004639 S
   0.0269368588924408    0.5134684443473816    0.2647960186004639 S
   0.4865315854549408    0.5134684443473816    0.2647960186004639 S
   0.6397298574447632    0.8198649287223816    0.0685374140739441 S
   0.1801351010799408    0.3602702021598816    0.0685374140739441 S
   0.1801351010799408    0.8198649287223816    0.0685374140739441 S
