Si4 Ge4
1.0
   5.3994521979323435    0.0000000000000000   -0.0003530194505841
  -0.0003530425319640    5.3994521863905218   -0.0003530194505841
   0.0000000000000000    0.0000000000000000    5.3994522094726562
Ge Si
4 4
direct
   0.0000000000000000    0.0000000000000000    0.0000000000000000 Ge
   0.0000000000000000    0.5000000000000000    0.5000000000000000 Ge
   0.5000000000000000    0.0000000000000000    0.5000000000000000 Ge
   0.5000000000000000    0.5000000000000000    0.0000000000000000 Ge
   0.2500000000000000    0.2500000000000000    0.7500000000000000 Si
   0.7500000000000000    0.7500000000000000    0.7500000000000000 Si
   0.7500000000000000    0.2500000000000000    0.2500000000000000 Si
   0.2500000000000000    0.7500000000000000    0.2500000000000000 Si
