V2 W4 O12
1.0
  10.2803542491003554    0.0000000000000000   -4.9854977743145525
  -0.0003693902594520    3.5392477243949094   -0.0002313981582114
   0.0000000000000000    0.0000000000000000    6.1985516548156738
V O W
2 12 4
direct
   0.0000000000000000    0.0000000000000000    0.0000000000000000 V
   0.5000000000000000    0.5000000000000000    0.0000000000000000 V
   0.6354293823242188    0.0000000000000000    0.0930786132812500 O
   0.3645706176757812    0.0000000000000000    0.9069213867187500 O
   0.1354293823242188    0.5000000000000000    0.0930786132812500 O
   0.8645706176757812    0.5000000000000000    0.9069213867187500 O
   0.6899414062500000    0.0000000000000000    0.5748596191406250 O
   0.3100585937500000    0.0000000000000000    0.4251403808593750 O
   0.1899414062500000    0.5000000000000000    0.5748596191406250 O
   0.8100585937500000    0.5000000000000000    0.4251403808593750 O
   0.9528198242187500    0.0000000000000000    0.2542724609375000 O
   0.0471801757812500    0.0000000000000000    0.7457275390625000 O
   0.4528198242187500    0.5000000000000000    0.2542724609375000 O
   0.5471801757812500    0.5000000000000000    0.7457275390625000 O
   0.8020629882812500    0.0000000000000000    0.3058471679687500 W
   0.1979370117187500    0.0000000000000000    0.6941528320312500 W
   0.3020629882812500    0.5000000000000000    0.3058471679687500 W
   0.6979370117187500    0.5000000000000000    0.6941528320312500 W
