Mg3 Bi1
1.0
   4.2204513459600488    0.0000000000000000   -0.0002759356617581
  -0.0002759537031884    4.2204513369384493   -0.0002759356617581
   0.0000000000000000    0.0000000000000000    4.2204513549804688
Bi Mg
1 3
direct
   0.0000000000000000    0.0000000000000000    0.0000000000000000 Bi
   0.5000000000000000    0.5000000000000000    0.0000000000000000 Mg
   0.0000000000000000    0.5000000000000000    0.5000000000000000 Mg
   0.5000000000000000    0.0000000000000000    0.5000000000000000 Mg
