In8 Co4 Cu8 Se16
1.0
   7.8884510825356724    0.0000000000000000   -0.0005157517031418
  -0.0009594739823782   14.6742486326425450   -0.0009594112534393
   0.0000000000000000    0.0000000000000000    7.5347471237182617
Co Se In Cu
4 16 8 8
direct
   0.0000000000000000    0.0000000000000000    0.9967651367187500 Co
   0.5000000000000000    0.0000000000000000    0.9967651367187500 Co
   0.5000000000000000    0.5000000000000000    0.4967651367187500 Co
   0.0000000000000000    0.5000000000000000    0.4967651367187500 Co
   0.2500000000000000    0.3098144531250000    0.1762695312500000 Se
   0.7500000000000000    0.6901855468750000    0.1762695312500000 Se
   0.7500000000000000    0.8098144531250000    0.6762695312500000 Se
   0.2500000000000000    0.1901855468750000    0.6762695312500000 Se
   0.2500000000000000    0.9397888183593750    0.8413238525390625 Se
   0.7500000000000000    0.0602111816406250    0.8413238525390625 Se
   0.7500000000000000    0.4397888183593750    0.3413238525390625 Se
   0.2500000000000000    0.5602111816406250    0.3413238525390625 Se
   0.2500000000000000    0.6603088378906250    0.9141235351562500 Se
   0.7500000000000000    0.3396911621093750    0.9141235351562500 Se
   0.7500000000000000    0.1603088378906250    0.4141235351562500 Se
   0.2500000000000000    0.8396911621093750    0.4141235351562500 Se
   0.2500000000000000    0.0772705078125000    0.1743164062500000 Se
   0.7500000000000000    0.9227294921875000    0.1743164062500000 Se
   0.7500000000000000    0.5772705078125000    0.6743164062500000 Se
   0.2500000000000000    0.4227294921875000    0.6743164062500000 Se
   0.2500000000000000    0.8098144531250000    0.0816650390625000 In
   0.7500000000000000    0.1901855468750000    0.0816650390625000 In
   0.7500000000000000    0.3098144531250000    0.5816650390625000 In
   0.2500000000000000    0.6901855468750000    0.5816650390625000 In
   0.2500000000000000    0.4710998535156250    0.0307006835937500 In
   0.7500000000000000    0.5289001464843750    0.0307006835937500 In
   0.7500000000000000    0.9710998535156250    0.5307006835937500 In
   0.2500000000000000    0.0289001464843750    0.5307006835937500 In
   0.9162759780883789    0.7056884765625000    0.8765563964843750 Cu
   0.0837240219116211    0.2943115234375000    0.8765563964843750 Cu
   0.4162759780883789    0.2943115234375000    0.8765563964843750 Cu
   0.5837240219116211    0.7056884765625000    0.8765563964843750 Cu
   0.4162759780883789    0.2056884765625000    0.3765563964843750 Cu
   0.5837240219116211    0.7943115234375000    0.3765563964843750 Cu
   0.9162759780883789    0.7943115234375000    0.3765563964843750 Cu
   0.0837240219116211    0.2056884765625000    0.3765563964843750 Cu
