Ba8 P2 I12
1.0
   8.5172538575283951    0.0000000000000000   -0.0005568632089051
  -0.0005568996181489    8.5172538393219881   -0.0005568632089051
   0.0000000000000000    0.0000000000000000   13.7834529876708984
P I Ba
2 12 8
direct
   0.5000000000000000    0.5000000000000000    0.0000000000000000 P
   0.0000000000000000    0.0000000000000000    0.5000000000000000 P
   0.5000000000000000    0.5000000000000000    0.1905517578125000 I
   0.5000000000000000    0.5000000000000000    0.8094482421875000 I
   0.0000000000000000    0.0000000000000000    0.6905517578125000 I
   0.0000000000000000    0.0000000000000000    0.3094482421875000 I
   0.9192962646484375    0.7177429199218750    0.0000000000000000 I
   0.0807037353515625    0.2822570800781250    0.0000000000000000 I
   0.2822570800781250    0.9192962646484375    0.0000000000000000 I
   0.7177429199218750    0.0807037353515625    0.0000000000000000 I
   0.4192962646484375    0.2177429199218750    0.5000000000000000 I
   0.5807037353515625    0.7822570800781250    0.5000000000000000 I
   0.7822570800781250    0.4192962646484375    0.5000000000000000 I
   0.2177429199218750    0.5807037353515625    0.5000000000000000 I
   0.5901489257812500    0.7770080566406250    0.0000000000000000 Ba
   0.4098510742187500    0.2229919433593750    0.0000000000000000 Ba
   0.2229919433593750    0.5901489257812500    0.0000000000000000 Ba
   0.7770080566406250    0.4098510742187500    0.0000000000000000 Ba
   0.0901489257812500    0.2770080566406250    0.5000000000000000 Ba
   0.9098510742187500    0.7229919433593750    0.5000000000000000 Ba
   0.7229919433593750    0.0901489257812500    0.5000000000000000 Ba
   0.2770080566406250    0.9098510742187500    0.5000000000000000 Ba
