Dy2 Th2 Mn8 Ge8
1.0
   4.4562516117219388    0.0000000000000000   -0.0002913524257585
  -0.0004455488209508    6.8142485327288789   -0.0004455196916515
   0.0000000000000000    0.0000000000000000   14.4646492004394531
Th Dy Ge Mn
2 2 8 8
direct
   0.0000000000000000    0.0000000000000000    0.0000000000000000 Th
   0.5000000000000000    0.5000000000000000    0.5000000000000000 Th
   0.0000000000000000    0.5000000000000000    0.5000000000000000 Dy
   0.5000000000000000    0.0000000000000000    0.0000000000000000 Dy
   0.0000000000000000    0.0000000000000000    0.7831573486328125 Ge
   0.0000000000000000    0.0000000000000000    0.2168426513671875 Ge
   0.5000000000000000    0.5000000000000000    0.2831573486328125 Ge
   0.5000000000000000    0.5000000000000000    0.7168426513671875 Ge
   0.0000000000000000    0.5000000000000000    0.9053039550781250 Ge
   0.0000000000000000    0.5000000000000000    0.0946960449218750 Ge
   0.5000000000000000    0.0000000000000000    0.4053039550781250 Ge
   0.5000000000000000    0.0000000000000000    0.5946960449218750 Ge
   0.0000000000000000    0.6925354003906250    0.6974487304687500 Mn
   0.0000000000000000    0.3074645996093750    0.6974487304687500 Mn
   0.0000000000000000    0.6925354003906250    0.3025512695312500 Mn
   0.0000000000000000    0.3074645996093750    0.3025512695312500 Mn
   0.5000000000000000    0.1925354003906250    0.1974487304687500 Mn
   0.5000000000000000    0.8074645996093750    0.1974487304687500 Mn
   0.5000000000000000    0.1925354003906250    0.8025512695312500 Mn
   0.5000000000000000    0.8074645996093750    0.8025512695312500 Mn
