Tb6 In2
1.0
   6.9714474529037984    0.0000000000000000   -0.0004557974511827
  -3.4853282275641879    6.0376789194808245   -0.0004557974511827
   0.0000000000000000    0.0000000000000000    5.6745510101318359
In Tb
2 6
direct
   0.6666666865348816    0.3333333432674408    0.2500000000000000 In
   0.3333333134651184    0.6666666269302368    0.7500000000000000 In
   0.6511840820312500    0.8255920410156250    0.2500000000000000 Tb
   0.1744079589843750    0.8255920410156250    0.2500000000000000 Tb
   0.1744079589843750    0.3488159179687500    0.2500000000000000 Tb
   0.3488159179687500    0.1744079589843750    0.7500000000000000 Tb
   0.8255920410156250    0.1744079589843750    0.7500000000000000 Tb
   0.8255920410156250    0.6511840820312500    0.7500000000000000 Tb
