Ca8 Si4 Ge4 O16
1.0
   6.3164477213325458    0.0000000000000000   -0.0004129731725530
  -0.0009329211026075   14.2681474075719485   -0.0009328601096552
   0.0000000000000000    0.0000000000000000    5.6221499443054199
Si Ge O Ca
4 4 16 8
direct
   0.0000000000000000    0.5000000000000000    0.2500000000000000 Si
   0.0000000000000000    0.5000000000000000    0.7500000000000000 Si
   0.5000000000000000    0.0000000000000000    0.2500000000000000 Si
   0.5000000000000000    0.0000000000000000    0.7500000000000000 Si
   0.2500000000000000    0.2500000000000000    0.0000000000000000 Ge
   0.7500000000000000    0.7500000000000000    0.0000000000000000 Ge
   0.7500000000000000    0.2500000000000000    0.5000000000000000 Ge
   0.2500000000000000    0.7500000000000000    0.5000000000000000 Ge
   0.8455276489257812    0.8671722412109375    0.0000000000000000 O
   0.1544723510742188    0.1328277587890625    0.0000000000000000 O
   0.1544723510742188    0.8671722412109375    0.5000000000000000 O
   0.8455276489257812    0.1328277587890625    0.5000000000000000 O
   0.3455276489257812    0.3671722412109375    0.0000000000000000 O
   0.6544723510742188    0.6328277587890625    0.0000000000000000 O
   0.6544723510742188    0.3671722412109375    0.5000000000000000 O
   0.3455276489257812    0.6328277587890625    0.5000000000000000 O
   0.6117706298828125    0.9508743286132812    0.5000000000000000 O
   0.3882293701171875    0.0491256713867188    0.5000000000000000 O
   0.3882293701171875    0.9508743286132812    0.0000000000000000 O
   0.6117706298828125    0.0491256713867188    0.0000000000000000 O
   0.1117706298828125    0.4508743286132812    0.5000000000000000 O
   0.8882293701171875    0.5491256713867188    0.5000000000000000 O
   0.8882293701171875    0.4508743286132812    0.0000000000000000 O
   0.1117706298828125    0.5491256713867188    0.0000000000000000 O
   0.6546020507812500    0.6439208984375000    0.5000000000000000 Ca
   0.3453979492187500    0.3560791015625000    0.5000000000000000 Ca
   0.3453979492187500    0.6439208984375000    0.0000000000000000 Ca
   0.6546020507812500    0.3560791015625000    0.0000000000000000 Ca
   0.1546020507812500    0.1439208984375000    0.5000000000000000 Ca
   0.8453979492187500    0.8560791015625000    0.5000000000000000 Ca
   0.8453979492187500    0.1439208984375000    0.0000000000000000 Ca
   0.1546020507812500    0.8560791015625000    0.0000000000000000 Ca
