Nd8 Si12 Ru8
1.0
  11.0483759027019683    0.0000000000000000   -5.1082845243023174
  -0.0009647448487204    9.4342498084384303   -0.0006168169620498
   0.0000000000000000    0.0000000000000000    7.4430475234985352
Si Ru Nd
12 8 8
direct
   0.5000000000000000    0.1822814941406250    0.2500000000000000 Si
   0.5000000000000000    0.8177185058593750    0.7500000000000000 Si
   0.0000000000000000    0.6822814941406250    0.2500000000000000 Si
   0.0000000000000000    0.3177185058593750    0.7500000000000000 Si
   0.0000000000000000    0.9663696289062500    0.2500000000000000 Si
   0.0000000000000000    0.0336303710937500    0.7500000000000000 Si
   0.5000000000000000    0.4663696289062500    0.2500000000000000 Si
   0.5000000000000000    0.5336303710937500    0.7500000000000000 Si
   0.5000000000000000    0.8630981445312500    0.2500000000000000 Si
   0.5000000000000000    0.1369018554687500    0.7500000000000000 Si
   0.0000000000000000    0.3630981445312500    0.2500000000000000 Si
   0.0000000000000000    0.6369018554687500    0.7500000000000000 Si
   0.5315399169921875    0.3318862915039062    0.9977569580078125 Ru
   0.4684600830078125    0.3318862915039062    0.5022430419921875 Ru
   0.4684600830078125    0.6681137084960938    0.0022430419921875 Ru
   0.5315399169921875    0.6681137084960938    0.4977569580078125 Ru
   0.0315399169921875    0.8318862915039062    0.9977569580078125 Ru
   0.9684600830078125    0.8318862915039062    0.5022430419921875 Ru
   0.9684600830078125    0.1681137084960938    0.0022430419921875 Ru
   0.0315399169921875    0.1681137084960938    0.4977569580078125 Ru
   0.7544860839843750    0.8897705078125000    0.7321472167968750 Nd
   0.2455139160156250    0.8897705078125000    0.7678527832031250 Nd
   0.2455139160156250    0.1102294921875000    0.2678527832031250 Nd
   0.7544860839843750    0.1102294921875000    0.2321472167968750 Nd
   0.2544860839843750    0.3897705078125000    0.7321472167968750 Nd
   0.7455139160156250    0.3897705078125000    0.7678527832031250 Nd
   0.7455139160156250    0.6102294921875000    0.2678527832031250 Nd
   0.2544860839843750    0.6102294921875000    0.2321472167968750 Nd
