Mn3 Be1 Co3 Ni2
1.0
   5.7531480666221855    0.0000000000000000   -0.0003761443004136
  -2.8762476500633443    4.9825608006309050   -0.0003761443004136
   0.0000000000000000    0.0000000000000000    3.6833481788635254
Be Ni Co Mn
1 2 3 3
direct
   0.0000000000000000    0.0000000000000000    0.0000000000000000 Be
   0.6666666865348816    0.3333333432674408    0.0000000000000000 Ni
   0.3333333432674408    0.6666666865348816    0.0000000000000000 Ni
   0.2846679687500000    0.0000000000000000    0.0000000000000000 Co
   0.0000000000000000    0.2846679687500000    0.0000000000000000 Co
   0.7153320312500000    0.7153320312500000    0.0000000000000000 Co
   0.3564987182617188    0.3564987182617188    0.5000000000000000 Mn
   0.6435012817382812    0.0000000000000000    0.5000000000000000 Mn
   0.0000000000000000    0.6435012817382812    0.5000000000000000 Mn
