Bi3 As3 C6 O18
1.0
   5.0850505720174040    0.0000000000000000   -0.0003324636821145
  -2.5422368047630535    4.4039495170224958   -0.0003324636821145
   0.0000000000000000    0.0000000000000000   13.9537506103515625
Bi As C O
3 3 6 18
direct
   0.0000000000000000    0.0000000000000000    0.0000000000000000 Bi
   0.6666666865348816    0.3333333432674408    0.3333333432674408 Bi
   0.3333333432674408    0.6666666865348816    0.6666666865348816 Bi
   0.3333333432674408    0.6666666865348816    0.1666666716337204 As
   0.6666666865348816    0.3333333432674408    0.8333333134651184 As
   0.0000000000000000    0.0000000000000000    0.5000000000000000 As
   0.6666666865348816    0.3333333432674408    0.0909271240234375 C
   0.3333333432674408    0.6666666865348816    0.9090728759765625 C
   0.3333333730697632    0.6666666865348816    0.4242604672908783 C
   0.0000000000000000    0.0000000000000000    0.2424062192440033 C
   0.0000000000000000    0.0000000000000000    0.7575938105583191 C
   0.6666666865348816    0.3333333730697632    0.5757395625114441 C
   0.8003387451171875    0.7073364257812500    0.7542114257812500 O
   0.2926635742187500    0.0930023193359375    0.7542114257812500 O
   0.9069976806640625    0.1996612548828125    0.7542114257812500 O
   0.7073364257812500    0.8003387451171875    0.2457885742187500 O
   0.0930023193359375    0.2926635742187500    0.2457885742187500 O
   0.1996612548828125    0.9069976806640625    0.2457885742187500 O
   0.4670054912567139    0.0406697988510132    0.0875447988510132 O
   0.9593302607536316    0.4263356626033783    0.0875447988510132 O
   0.5736643671989441    0.5329946279525757    0.0875447988510132 O
   0.3740031719207764    0.1336721181869507    0.5791219472885132 O
   0.7596690058708191    0.6259969472885132    0.5791219472885132 O
   0.8663279414176941    0.2403310239315033    0.5791219472885132 O
   0.1336721181869507    0.3740031719207764    0.4208781719207764 O
   0.6259969472885132    0.7596690058708191    0.4208781719207764 O
   0.2403310239315033    0.8663279414176941    0.4208781719207764 O
   0.0406697988510132    0.4670054912567139    0.9124552607536316 O
   0.4263356626033783    0.9593302607536316    0.9124552607536316 O
   0.5329946279525757    0.5736643671989441    0.9124552607536316 O
