Mn21 V3 F24
1.0
   7.3906464418760036    0.0000000000000000   -0.0004832049346361
  -3.6949039403700890    6.4007296224924257   -0.0004832049346361
   0.0000000000000000    0.0000000000000000   17.4514541625976562
F V Mn F Mn
6 3 3 18 18
direct
   0.3333333432674408    0.6666666865348816    0.4412231445312500 F
   0.0000000000000000    0.0000000000000000    0.7745565176010132 F
   0.6666666865348816    0.3333333730697632    0.1078898906707764 F
   0.6666666865348816    0.3333333432674408    0.6074981689453125 F
   0.3333333730697632    0.6666666865348816    0.9408315420150757 F
   0.0000000000000000    0.0000000000000000    0.2741649150848389 F
   0.6666666865348816    0.3333333432674408    0.8454895019531250 V
   0.3333333730697632    0.6666666865348816    0.1788228750228882 V
   0.0000000000000000    0.0000000000000000    0.5121562480926514 V
   0.6666666865348816    0.3333333432674408    0.3329315185546875 Mn
   0.3333333730697632    0.6666666865348816    0.6662648916244507 Mn
   0.0000000000000000    0.0000000000000000    0.9995982050895691 Mn
   0.9647827148437500    0.4823913574218750    0.7772979736328125 F
   0.5176086425781250    0.4823913574218750    0.7772979736328125 F
   0.5176086425781250    0.0352172851562500    0.7772979736328125 F
   0.6314494609832764    0.8157247304916382    0.1106313467025757 F
   0.1842753291130066    0.8157247304916382    0.1106313467025757 F
   0.1842753291130066    0.3685506582260132    0.1106313467025757 F
   0.2981160879135132    0.1490581035614014    0.4439647197723389 F
   0.8509420156478882    0.1490581035614014    0.4439647197723389 F
   0.8509420156478882    0.7018839716911316    0.4439647197723389 F
   0.8064727783203125    0.1935272216796875    0.9276123046875000 F
   0.8064727783203125    0.6129455566406250    0.9276123046875000 F
   0.3870544433593750    0.1935272216796875    0.9276123046875000 F
   0.4731395244598389    0.5268605947494507    0.2609456777572632 F
   0.4731394648551941    0.9462789297103882    0.2609456777572632 F
   0.0537211298942566    0.5268605947494507    0.2609456777572632 F
   0.1398061513900757    0.8601939082145691    0.5942790508270264 F
   0.1398061215877533    0.2796123027801514    0.5942790508270264 F
   0.7203878164291382    0.8601939082145691    0.5942790508270264 F
   0.1590576171875000    0.8409423828125000    0.3462524414062500 Mn
   0.1590576171875000    0.3181152343750000    0.3462524414062500 Mn
   0.6818847656250000    0.8409423828125000    0.3462524414062500 Mn
   0.8257243037223816    0.1742757558822632    0.6795858144760132 Mn
   0.8257243037223816    0.6514486074447632    0.6795858144760132 Mn
   0.3485515117645264    0.1742757260799408    0.6795858144760132 Mn
   0.4923909604549408    0.5076091289520264    0.0129191875457764 Mn
   0.4923909902572632    0.9847819209098816    0.0129191875457764 Mn
   0.0152181386947632    0.5076090693473816    0.0129191875457764 Mn
   0.8265075683593750    0.1734924316406250    0.1767578125000000 Mn
   0.8265075683593750    0.6530151367187500    0.1767578125000000 Mn
   0.3469848632812500    0.1734924316406250    0.1767578125000000 Mn
   0.4931743144989014    0.5068258047103882    0.5100911855697632 Mn
   0.4931742548942566    0.9863485097885132    0.5100911855697632 Mn
   0.0136515498161316    0.5068258047103882    0.5100911855697632 Mn
   0.1598409414291382    0.8401591181755066    0.8434244990348816 Mn
   0.1598409116268158    0.3196818828582764    0.8434244990348816 Mn
   0.6803182363510132    0.8401591181755066    0.8434244990348816 Mn
