Ti2 Si4 Ni8
1.0
   6.9714474529037984    0.0000000000000000   -0.0004557974511827
  -0.0004558272524700    6.9714474380016940   -0.0004557974511827
   0.0000000000000000    0.0000000000000000    3.4475481510162354
Ti Si Ni
2 4 8
direct
   0.5000000000000000    0.5000000000000000    0.0000000000000000 Ti
   0.0000000000000000    0.0000000000000000    0.5000000000000000 Ti
   0.2071228027343750    0.2071228027343750    0.0000000000000000 Si
   0.7928771972656250    0.7928771972656250    0.0000000000000000 Si
   0.2928771972656250    0.7071228027343750    0.5000000000000000 Si
   0.7071228027343750    0.2928771972656250    0.5000000000000000 Si
   0.1614379882812500    0.4180908203125000    0.5000000000000000 Ni
   0.8385620117187500    0.5819091796875000    0.5000000000000000 Ni
   0.0819091796875000    0.6614379882812500    0.0000000000000000 Ni
   0.9180908203125000    0.3385620117187500    0.0000000000000000 Ni
   0.3385620117187500    0.9180908203125000    0.0000000000000000 Ni
   0.6614379882812500    0.0819091796875000    0.0000000000000000 Ni
   0.4180908203125000    0.1614379882812500    0.5000000000000000 Ni
   0.5819091796875000    0.8385620117187500    0.5000000000000000 Ni
