Tm2 Ge2 Br2
1.0
   3.2641489436002784    0.0000000000000000   -0.0002134120322680
  -0.0003333418463390    5.0981488009903320   -0.0003333200529598
   0.0000000000000000    0.0000000000000000   12.6961488723754883
Ge Tm Br
2 2 2
direct
   0.2500000000000000    0.2500000000000000    0.6183471679687500 Ge
   0.7500000000000000    0.7500000000000000    0.3816528320312500 Ge
   0.2500000000000000    0.2500000000000000    0.3805999755859375 Tm
   0.7500000000000000    0.7500000000000000    0.6194000244140625 Tm
   0.2500000000000000    0.7500000000000000    0.8195800781250000 Br
   0.7500000000000000    0.2500000000000000    0.1804199218750000 Br
