Pm1 Gd3
1.0
   5.4387507322416608    0.0000000000000000   -0.0003555888125272
  -0.0003556120618989    5.4387507206158352   -0.0003555888125272
   0.0000000000000000    0.0000000000000000    5.4387507438659668
Pm Gd
1 3
direct
   0.0000000000000000    0.0000000000000000    0.0000000000000000 Pm
   0.5000000000000000    0.5000000000000000    0.0000000000000000 Gd
   0.0000000000000000    0.5000000000000000    0.5000000000000000 Gd
   0.5000000000000000    0.0000000000000000    0.5000000000000000 Gd
