Cr6 B2 Ir2
1.0
   4.2204513459600488    0.0000000000000000   -0.0002759356617581
  -0.0002759537031884    4.2204513369384493   -0.0002759356617581
   0.0000000000000000    0.0000000000000000    7.1155476570129395
B Cr Ir
2 6 2
direct
   0.7500000000000000    0.2500000000000000    0.0000000000000000 B
   0.2500000000000000    0.7500000000000000    0.0000000000000000 B
   0.2500000000000000    0.2500000000000000    0.6301269531250000 Cr
   0.7500000000000000    0.7500000000000000    0.3698730468750000 Cr
   0.2500000000000000    0.2500000000000000    0.8324890136718750 Cr
   0.7500000000000000    0.7500000000000000    0.1675109863281250 Cr
   0.7500000000000000    0.7500000000000000    0.9218750000000000 Cr
   0.2500000000000000    0.2500000000000000    0.0781250000000000 Cr
   0.7500000000000000    0.7500000000000000    0.6368255615234375 Ir
   0.2500000000000000    0.2500000000000000    0.3631744384765625 Ir
