La4 U2 P4 N2
1.0
   3.8143505968585298    0.0000000000000000   -0.0002493845491500
  -0.0002494008545957    3.8143505887050075   -0.0002493845491500
   0.0000000000000000    0.0000000000000000   18.1588535308837891
U N P La
2 2 4 4
direct
   0.0000000000000000    0.0000000000000000    0.0000000000000000 U
   0.5000000000000000    0.5000000000000000    0.5000000000000000 U
   0.5000000000000000    0.5000000000000000    0.0000000000000000 N
   0.0000000000000000    0.0000000000000000    0.5000000000000000 N
   0.5000000000000000    0.5000000000000000    0.3446044921875000 P
   0.5000000000000000    0.5000000000000000    0.6553955078125000 P
   0.0000000000000000    0.0000000000000000    0.8446044921875000 P
   0.0000000000000000    0.0000000000000000    0.1553955078125000 P
   0.0000000000000000    0.0000000000000000    0.6630859375000000 La
   0.0000000000000000    0.0000000000000000    0.3369140625000000 La
   0.5000000000000000    0.5000000000000000    0.1630859375000000 La
   0.5000000000000000    0.5000000000000000    0.8369140625000000 La
