Na2 Ni6 O8
1.0
   7.6133522824644650    0.0000000000000000   -0.0004977655771984
  -0.0003222069879826    4.9278516558748304   -0.0003221859225834
   0.0000000000000000    0.0000000000000000    5.5435523986816406
O Na Ni O Ni
4 2 2 4 4
direct
   0.0000000000000000    0.2362670898437500    0.6596450805664062 O
   0.5000000000000000    0.7637329101562500    0.1596450805664062 O
   0.0000000000000000    0.8301391601562500    0.0768432617187500 O
   0.5000000000000000    0.1698608398437500    0.5768432617187500 O
   0.5000000000000000    0.2305145263671875    0.0043945312500000 Na
   0.0000000000000000    0.7694854736328125    0.5043945312500000 Na
   0.0000000000000000    0.2067909240722656    0.0047607421875000 Ni
   0.5000000000000000    0.7932090759277344    0.5047607421875000 Ni
   0.7938232421875000    0.3345489501953125    0.1632156372070312 O
   0.7061767578125000    0.6654510498046875    0.6632156372070312 O
   0.2938232421875000    0.6654510498046875    0.6632156372070312 O
   0.2061767578125000    0.3345489501953125    0.1632156372070312 O
   0.7556991577148438    0.3000183105468750    0.5229492187500000 Ni
   0.7443008422851562    0.6999816894531250    0.0229492187500000 Ni
   0.2556991577148438    0.6999816894531250    0.0229492187500000 Ni
   0.2443008422851562    0.3000183105468750    0.5229492187500000 Ni
