Th2 N1 O2
1.0
   3.6178491038245353    0.0000000000000000   -0.0002365371626806
  -1.8087193068313665    3.1332677203104518   -0.0002365371626806
   0.0000000000000000    0.0000000000000000    7.0893511772155762
N O Th
1 2 2
direct
   0.0000000000000000    0.0000000000000000    0.0000000000000000 N
   0.6666666865348816    0.3333333432674408    0.3615722656250000 O
   0.3333333432674408    0.6666666865348816    0.6384277343750000 O
   0.6666666865348816    0.3333333432674408    0.7792663574218750 Th
   0.3333333432674408    0.6666666865348816    0.2207336425781250 Th
