Be8 Co4 Tc4
1.0
   5.5173482776974527    0.0000000000000000   -0.0003607275675892
  -0.0003607511529468    5.5173482659036175   -0.0003607275675892
   0.0000000000000000    0.0000000000000000    5.5173482894897461
Tc Co Be
4 4 8
direct
   0.0000000000000000    0.0000000000000000    0.0000000000000000 Tc
   0.0000000000000000    0.5000000000000000    0.5000000000000000 Tc
   0.5000000000000000    0.0000000000000000    0.5000000000000000 Tc
   0.5000000000000000    0.5000000000000000    0.0000000000000000 Tc
   0.5000000000000000    0.0000000000000000    0.0000000000000000 Co
   0.0000000000000000    0.5000000000000000    0.0000000000000000 Co
   0.0000000000000000    0.0000000000000000    0.5000000000000000 Co
   0.5000000000000000    0.5000000000000000    0.5000000000000000 Co
   0.2500000000000000    0.2500000000000000    0.2500000000000000 Be
   0.7500000000000000    0.7500000000000000    0.2500000000000000 Be
   0.7500000000000000    0.2500000000000000    0.7500000000000000 Be
   0.2500000000000000    0.7500000000000000    0.7500000000000000 Be
   0.2500000000000000    0.2500000000000000    0.7500000000000000 Be
   0.7500000000000000    0.7500000000000000    0.7500000000000000 Be
   0.2500000000000000    0.7500000000000000    0.2500000000000000 Be
   0.7500000000000000    0.2500000000000000    0.2500000000000000 Be
