Mn4 Al14 Fe2
1.0
   7.5347471076141579    0.0000000000000000   -0.0004926263233220
  -0.0003247765490955    4.9671506669372993   -0.0003247553157023
   0.0000000000000000    0.0000000000000000    8.3731536865234375
Al Fe Al Mn
2 2 12 4
direct
   0.0000000000000000    0.5000000000000000    0.5332641601562500 Al
   0.0000000000000000    0.0000000000000000    0.0332641601562500 Al
   0.5000000000000000    0.0000000000000000    0.6131134033203125 Fe
   0.5000000000000000    0.5000000000000000    0.1131134033203125 Fe
   0.3356018066406250    0.0000000000000000    0.1744689941406250 Al
   0.6643981933593750    0.0000000000000000    0.1744689941406250 Al
   0.3356018066406250    0.5000000000000000    0.6744689941406250 Al
   0.6643981933593750    0.5000000000000000    0.6744689941406250 Al
   0.1668548583984375    0.5000000000000000    0.2151184082031250 Al
   0.8331451416015625    0.5000000000000000    0.2151184082031250 Al
   0.1668548583984375    0.0000000000000000    0.7151184082031250 Al
   0.8331451416015625    0.0000000000000000    0.7151184082031250 Al
   0.2056503295898438    0.0000000000000000    0.4402284622192383 Al
   0.7943496704101562    0.0000000000000000    0.4402284622192383 Al
   0.2056503295898438    0.5000000000000000    0.9402284622192383 Al
   0.7943496704101562    0.5000000000000000    0.9402284622192383 Al
   0.6317138671875000    0.0000000000000000    0.8930053710937500 Mn
   0.3682861328125000    0.0000000000000000    0.8930053710937500 Mn
   0.6317138671875000    0.5000000000000000    0.3930053710937500 Mn
   0.3682861328125000    0.5000000000000000    0.3930053710937500 Mn
