Rb8 Te8 Se8
1.0
  12.2155539589704691    0.0000000000000000   -2.5873068683021136
  -0.0005170024775993    6.4081473005006782   -0.0004189685478674
   0.0000000000000000    0.0000000000000000   12.5520477294921875
Se Rb Te
8 8 8
direct
   0.2500000000000000    0.2500000000000000    0.0000000000000000 Se
   0.7500000000000000    0.2500000000000000    0.5000000000000000 Se
   0.7500000000000000    0.7500000000000000    0.0000000000000000 Se
   0.2500000000000000    0.7500000000000000    0.5000000000000000 Se
   0.0000000000000000    0.6617279052734375    0.2500000000000000 Se
   0.0000000000000000    0.3382720947265625    0.7500000000000000 Se
   0.5000000000000000    0.1617279052734375    0.2500000000000000 Se
   0.5000000000000000    0.8382720947265625    0.7500000000000000 Se
   0.5818557739257812    0.2486572265625000    0.9467163085937500 Rb
   0.4181442260742188    0.2486572265625000    0.5532836914062500 Rb
   0.4181442260742188    0.7513427734375000    0.0532836914062500 Rb
   0.5818557739257812    0.7513427734375000    0.4467163085937500 Rb
   0.0818557739257812    0.7486572265625000    0.9467163085937500 Rb
   0.9181442260742188    0.7486572265625000    0.5532836914062500 Rb
   0.9181442260742188    0.2513427734375000    0.0532836914062500 Rb
   0.0818557739257812    0.2513427734375000    0.4467163085937500 Rb
   0.1931304931640625    0.8287353515625000    0.2813110351562500 Te
   0.8068695068359375    0.8287353515625000    0.2186889648437500 Te
   0.8068695068359375    0.1712646484375000    0.7186889648437500 Te
   0.1931304931640625    0.1712646484375000    0.7813110351562500 Te
   0.6931304931640625    0.3287353515625000    0.2813110351562500 Te
   0.3068695068359375    0.3287353515625000    0.2186889648437500 Te
   0.3068695068359375    0.6712646484375000    0.7186889648437500 Te
   0.6931304931640625    0.6712646484375000    0.7813110351562500 Te
