Li2 Mn3 O7
1.0
   3.6881680686570379    0.0000000000000000    0.7414045000602686
   0.7153139418184719    4.6395706312521199    1.4102824530215714
   0.0000000000000000    0.0000000000000000    6.7487492561340332
Li O Mn
2 7 3
direct
   0.0805664062500000    0.3334960937500000    0.2067871093750000 Li
   0.5149536132812500    0.5722656250000000    0.0084228515625000 Li
   0.5842285156250000    0.8072013854980469    0.7202148437500000 O
   0.5673828125000000    0.1601562500000000    0.9329833984375000 O
   0.4182128906250000    0.2401542663574219    0.4013671875000000 O
   0.0566406250000000    0.4904174804687500    0.8925781250000000 O
   0.9926757812500000    0.0415649414062500    0.5573120117187500 O
   0.0993652343750000    0.8948974609375000    0.1101074218750000 O
   0.6806640625000000    0.6226501464843750    0.3177490234375000 O
   0.2800292968750000    0.2418823242187500    0.7047119140625000 Mn
   0.7833251953125000    0.9109497070312500    0.3743896484375000 Mn
   0.9072265625000000    0.8676757812500000    0.8648681640625000 Mn
