Li8 Ge20 Rh12
1.0
   7.4823498565969970    0.0000000000000000   -0.0004892005593578
  -0.0008883812326906   13.5869521513897542   -0.0008883231516868
   0.0000000000000000    0.0000000000000000    6.6701517105102539
Rh Ge Li Ge Rh
4 12 8 8 8
direct
   0.0000000000000000    0.0000000000000000    0.2500000000000000 Rh
   0.5000000000000000    0.5000000000000000    0.7500000000000000 Rh
   0.0000000000000000    0.0000000000000000    0.7500000000000000 Rh
   0.5000000000000000    0.5000000000000000    0.2500000000000000 Rh
   0.0000000000000000    0.5000000000000000    0.2500000000000000 Ge
   0.5000000000000000    0.0000000000000000    0.7500000000000000 Ge
   0.0000000000000000    0.5000000000000000    0.7500000000000000 Ge
   0.5000000000000000    0.0000000000000000    0.2500000000000000 Ge
   0.0000000000000000    0.2126770019531250    0.2500000000000000 Ge
   0.0000000000000000    0.7873229980468750    0.2500000000000000 Ge
   0.5000000000000000    0.7126770019531250    0.7500000000000000 Ge
   0.5000000000000000    0.2873229980468750    0.7500000000000000 Ge
   0.0000000000000000    0.7873229980468750    0.7500000000000000 Ge
   0.0000000000000000    0.2126770019531250    0.7500000000000000 Ge
   0.5000000000000000    0.2873229980468750    0.2500000000000000 Ge
   0.5000000000000000    0.7126770019531250    0.2500000000000000 Ge
   0.2831420898437500    0.6146850585937500    0.5000000000000000 Li
   0.7168579101562500    0.3853149414062500    0.5000000000000000 Li
   0.2168579101562500    0.1146850585937500    0.5000000000000000 Li
   0.7831420898437500    0.8853149414062500    0.5000000000000000 Li
   0.7831420898437500    0.1146850585937500    0.0000000000000000 Li
   0.2168579101562500    0.8853149414062500    0.0000000000000000 Li
   0.7168579101562500    0.6146850585937500    0.0000000000000000 Li
   0.2831420898437500    0.3853149414062500    0.0000000000000000 Li
   0.1789093017578125    0.0856323242187500    0.0000000000000000 Ge
   0.8210906982421875    0.9143676757812500    0.0000000000000000 Ge
   0.3210906982421875    0.5856323242187500    0.0000000000000000 Ge
   0.6789093017578125    0.4143676757812500    0.0000000000000000 Ge
   0.6789093017578125    0.5856323242187500    0.5000000000000000 Ge
   0.3210906982421875    0.4143676757812500    0.5000000000000000 Ge
   0.8210906982421875    0.0856323242187500    0.5000000000000000 Ge
   0.1789093017578125    0.9143676757812500    0.5000000000000000 Ge
   0.4521484375000000    0.1504211425781250    0.0000000000000000 Rh
   0.5478515625000000    0.8495788574218750    0.0000000000000000 Rh
   0.0478515625000000    0.6504211425781250    0.0000000000000000 Rh
   0.9521484375000000    0.3495788574218750    0.0000000000000000 Rh
   0.9521484375000000    0.6504211425781250    0.5000000000000000 Rh
   0.0478515625000000    0.3495788574218750    0.5000000000000000 Rh
   0.5478515625000000    0.1504211425781250    0.5000000000000000 Rh
   0.4521484375000000    0.8495788574218750    0.5000000000000000 Rh
