Cr12 O18
1.0
   4.7051539320517737    0.0000000000000000   -0.0003076258100114
  -2.3523100367892815    4.0749369338828636   -0.0003076258100114
   0.0000000000000000    0.0000000000000000   15.4340496063232422
Cr O
12 18
direct
   0.3333333432674408    0.6666666865348816    0.8212890625000000 Cr
   0.6666666865348816    0.3333333432674408    0.6787109375000000 Cr
   0.6666666269302368    0.3333333134651184    0.1787109375000000 Cr
   0.3333333134651184    0.6666666269302368    0.3212890625000000 Cr
   0.0000000000000000    0.0000000000000000    0.1546224355697632 Cr
   0.3333333730697632    0.6666666865348816    0.0120442509651184 Cr
   0.3333333432674408    0.6666666269302368    0.5120443105697632 Cr
   0.0000000000000000    0.0000000000000000    0.6546223163604736 Cr
   0.6666666865348816    0.3333333730697632    0.4879558086395264 Cr
   0.0000000000000000    0.0000000000000000    0.3453775644302368 Cr
   0.0000000000000000    0.0000000000000000    0.8453776240348816 Cr
   0.6666666269302368    0.3333333432674408    0.9879556894302368 Cr
   0.3594055175781250    0.3333333432674408    0.0833333358168602 O
   0.6666666269302368    0.0260721743106842    0.0833333358168602 O
   0.9739278554916382    0.6405944824218750    0.0833333358168602 O
   0.3333333432674408    0.3594055175781250    0.4166666567325592 O
   0.0260721743106842    0.6666666269302368    0.4166666567325592 O
   0.6405944824218750    0.9739278554916382    0.4166666567325592 O
   0.6405944824218750    0.6666666269302368    0.9166666865348816 O
   0.3333333432674408    0.9739278554916382    0.9166666865348816 O
   0.0260721743106842    0.3594055175781250    0.9166666865348816 O
   0.6666666269302368    0.6405944824218750    0.5833333134651184 O
   0.9739278554916382    0.3333333432674408    0.5833333134651184 O
   0.3594055175781250    0.0260721743106842    0.5833333134651184 O
   0.0000000000000000    0.6927388906478882    0.7500000000000000 O
   0.6927388906478882    0.0000000000000000    0.7500000000000000 O
   0.3072611689567566    0.3072611689567566    0.7500000000000000 O
   0.3072611689567566    0.0000000000000000    0.2500000000000000 O
   0.0000000000000000    0.3072611689567566    0.2500000000000000 O
   0.6927388906478882    0.6927388906478882    0.2500000000000000 O
