Sr2 P2 Au2
1.0
   4.3121509459837846    0.0000000000000000   -0.0002819310370726
  -2.1558308393036518    3.7345734928176419   -0.0002819310370726
   0.0000000000000000    0.0000000000000000    8.1504478454589844
Sr P Au
2 2 2
direct
   0.0000000000000000    0.0000000000000000    0.0000000000000000 Sr
   0.0000000000000000    0.0000000000000000    0.5000000000000000 Sr
   0.3333333432674408    0.6666666865348816    0.2500000000000000 P
   0.6666666269302368    0.3333333134651184    0.7500000000000000 P
   0.6666666865348816    0.3333333432674408    0.2500000000000000 Au
   0.3333333134651184    0.6666666269302368    0.7500000000000000 Au
