Li8 Np4 Pb4
1.0
   7.1941490019578449    0.0000000000000000   -0.0004703578131619
  -0.0004703885664456    7.1941489865796955   -0.0004703578131619
   0.0000000000000000    0.0000000000000000    7.1941490173339844
Pb Np Li
4 4 8
direct
   0.0000000000000000    0.0000000000000000    0.0000000000000000 Pb
   0.0000000000000000    0.5000000000000000    0.5000000000000000 Pb
   0.5000000000000000    0.0000000000000000    0.5000000000000000 Pb
   0.5000000000000000    0.5000000000000000    0.0000000000000000 Pb
   0.5000000000000000    0.0000000000000000    0.0000000000000000 Np
   0.0000000000000000    0.5000000000000000    0.0000000000000000 Np
   0.0000000000000000    0.0000000000000000    0.5000000000000000 Np
   0.5000000000000000    0.5000000000000000    0.5000000000000000 Np
   0.2500000000000000    0.2500000000000000    0.2500000000000000 Li
   0.7500000000000000    0.7500000000000000    0.2500000000000000 Li
   0.7500000000000000    0.2500000000000000    0.7500000000000000 Li
   0.2500000000000000    0.7500000000000000    0.7500000000000000 Li
   0.2500000000000000    0.2500000000000000    0.7500000000000000 Li
   0.7500000000000000    0.7500000000000000    0.7500000000000000 Li
   0.2500000000000000    0.7500000000000000    0.2500000000000000 Li
   0.7500000000000000    0.2500000000000000    0.2500000000000000 Li
