Ba2 Ge6 Pt2
1.0
   4.7182521719224599    0.0000000000000000   -0.0003084821808567
  -0.0003085023502676    4.7182521618367659   -0.0003084821808567
   0.0000000000000000    0.0000000000000000    9.6700496673583984
Ge Ba Pt Ge
2 2 2 4
direct
   0.0000000000000000    0.0000000000000000    0.3996124267578125 Ge
   0.5000000000000000    0.5000000000000000    0.8996124267578125 Ge
   0.0000000000000000    0.0000000000000000    0.0118713378906250 Ba
   0.5000000000000000    0.5000000000000000    0.5118713378906250 Ba
   0.5000000000000000    0.5000000000000000    0.1577453613281250 Pt
   0.0000000000000000    0.0000000000000000    0.6577453613281250 Pt
   0.0000000000000000    0.5000000000000000    0.7642517089843750 Ge
   0.5000000000000000    0.0000000000000000    0.7642517089843750 Ge
   0.5000000000000000    0.0000000000000000    0.2642517089843750 Ge
   0.0000000000000000    0.5000000000000000    0.2642517089843750 Ge
