Y10 Sn6
1.0
   9.2639522354490698    0.0000000000000000   -0.0006056828004975
  -4.6314505621882303    8.0231213820238416   -0.0006056828004975
   0.0000000000000000    0.0000000000000000    6.9190464019775391
Y Sn
10 6
direct
   0.6666666865348816    0.3333333432674408    0.0000000000000000 Y
   0.3333333134651184    0.6666666269302368    0.5000000000000000 Y
   0.3333333134651184    0.6666666269302368    0.0000000000000000 Y
   0.6666666865348816    0.3333333432674408    0.5000000000000000 Y
   0.7578125000000000    0.0000000000000000    0.2500000000000000 Y
   0.0000000000000000    0.7578125000000000    0.2500000000000000 Y
   0.2421875000000000    0.2421875000000000    0.2500000000000000 Y
   0.2421875000000000    0.0000000000000000    0.7500000000000000 Y
   0.0000000000000000    0.2421875000000000    0.7500000000000000 Y
   0.7578125000000000    0.7578125000000000    0.7500000000000000 Y
   0.6101684570312500    0.6101684570312500    0.2500000000000000 Sn
   0.3898315429687500    0.0000000000000000    0.2500000000000000 Sn
   0.0000000000000000    0.3898315429687500    0.2500000000000000 Sn
   0.3898315429687500    0.3898315429687500    0.7500000000000000 Sn
   0.6101684570312500    0.0000000000000000    0.7500000000000000 Sn
   0.0000000000000000    0.6101684570312500    0.7500000000000000 Sn
