Sr3 Hg12 Se18 S6
1.0
   9.7748517781193254    0.0000000000000000   -0.0006390857216172
  -4.8868713495566531    8.4655900973933811   -0.0006390857216172
   0.0000000000000000    0.0000000000000000   12.0673494338989258
Sr Hg S Hg Se
3 3 6 9 18
direct
   0.0000000000000000    0.0000000000000000    0.0000000000000000 Sr
   0.6666666865348816    0.3333333432674408    0.3333333432674408 Sr
   0.3333333432674408    0.6666666865348816    0.6666666865348816 Sr
   0.3333333432674408    0.6666666865348816    0.1666666716337204 Hg
   0.6666666865348816    0.3333333432674408    0.8333333134651184 Hg
   0.0000000000000000    0.0000000000000000    0.5000000000000000 Hg
   0.0000000000000000    0.0000000000000000    0.2434692382812500 S
   0.0000000000000000    0.0000000000000000    0.7565307617187500 S
   0.6666666865348816    0.3333333432674408    0.5768026113510132 S
   0.6666666865348816    0.3333333432674408    0.0898641049861908 S
   0.3333333432674408    0.6666666865348816    0.9101359248161316 S
   0.3333333432674408    0.6666666865348816    0.4231974482536316 S
   0.5256958007812500    0.0000000000000000    0.0000000000000000 Hg
   0.0000000000000000    0.5256958007812500    0.0000000000000000 Hg
   0.4743041992187500    0.4743041992187500    0.0000000000000000 Hg
   0.1923625469207764    0.3333333432674408    0.3333333432674408 Hg
   0.6666666865348816    0.8590291738510132    0.3333333432674408 Hg
   0.1409708857536316    0.8076375722885132    0.3333333432674408 Hg
   0.8590291738510132    0.6666666865348816    0.6666666865348816 Hg
   0.3333333432674408    0.1923625469207764    0.6666666865348816 Hg
   0.8076375722885132    0.1409708857536316    0.6666666865348816 Hg
   0.9736938476562500    0.4644775390625000    0.7491760253906250 Se
   0.5355224609375000    0.5092163085937500    0.7491760253906250 Se
   0.4907836914062500    0.0263061523437500    0.7491760253906250 Se
   0.4644775390625000    0.9736938476562500    0.2508239746093750 Se
   0.5092163085937500    0.5355224609375000    0.2508239746093750 Se
   0.0263061523437500    0.4907836914062500    0.2508239746093750 Se
   0.6403605937957764    0.7978109121322632    0.0825093984603882 Se
   0.2021891474723816    0.8425496816635132    0.0825093984603882 Se
   0.1574503779411316    0.3596395254135132    0.0825093984603882 Se
   0.1311442852020264    0.3070272207260132    0.5841573476791382 Se
   0.1758830547332764    0.8688558340072632    0.5841573476791382 Se
   0.6929728388786316    0.8241170644760132    0.5841573476791382 Se
   0.3070272207260132    0.1311442852020264    0.4158427715301514 Se
   0.8688558340072632    0.1758830547332764    0.4158427715301514 Se
   0.8241170644760132    0.6929728388786316    0.4158427715301514 Se
   0.7978109121322632    0.6403605937957764    0.9174906611442566 Se
   0.8425496816635132    0.2021891474723816    0.9174906611442566 Se
   0.3596395254135132    0.1574503779411316    0.9174906611442566 Se
