Li4 V8 O18
1.0
   6.2411842098863186    0.0000000000000000   -1.3330102689616949
  -0.0007137688760419    8.8316516399028870   -0.0005774187279674
   0.0000000000000000    0.0000000000000000    6.8404488563537598
Li O V
4 18 8
direct
   0.5000000000000000    0.6887817382812500    0.0000000000000000 Li
   0.0000000000000000    0.1887817382812500    0.0000000000000000 Li
   0.0000000000000000    0.5773315429687500    0.0000000000000000 Li
   0.5000000000000000    0.0773315429687500    0.0000000000000000 Li
   0.5000000000000000    0.3040771484375000    0.0000000000000000 O
   0.0000000000000000    0.8040771484375000    0.0000000000000000 O
   0.6028442382812500    0.4585418701171875    0.3726654052734375 O
   0.3971557617187500    0.4585418701171875    0.6273345947265625 O
   0.1028442382812500    0.9585418701171875    0.3726654052734375 O
   0.8971557617187500    0.9585418701171875    0.6273345947265625 O
   0.9898376464843750    0.3491210937500000    0.7669677734375000 O
   0.0101623535156250    0.3491210937500000    0.2330322265625000 O
   0.4898376464843750    0.8491210937500000    0.7669677734375000 O
   0.5101623535156250    0.8491210937500000    0.2330322265625000 O
   0.7264404296875000    0.5264930725097656    0.9952375888824463 O
   0.2735595703125000    0.5264930725097656    0.0047624111175537 O
   0.2264404296875000    0.0264930725097656    0.9952375888824463 O
   0.7735595703125000    0.0264930725097656    0.0047624111175537 O
   0.2948608398437500    0.1662139892578125    0.6719970703125000 O
   0.7051391601562500    0.1662139892578125    0.3280029296875000 O
   0.7948608398437500    0.6662139892578125    0.6719970703125000 O
   0.2051391601562500    0.6662139892578125    0.3280029296875000 O
   0.7095031738281250    0.4810791015625000    0.6795043945312500 V
   0.2904968261718750    0.4810791015625000    0.3204956054687500 V
   0.2095031738281250    0.9810791015625000    0.6795043945312500 V
   0.7904968261718750    0.9810791015625000    0.3204956054687500 V
   0.7680892944335938    0.8611755371093750    0.8008575439453125 V
   0.2319107055664062    0.8611755371093750    0.1991424560546875 V
   0.2680892944335938    0.3611755371093750    0.8008575439453125 V
   0.7319107055664062    0.3611755371093750    0.1991424560546875 V
