Dy6 S18
1.0
   6.5391497472237496    0.0000000000000000   -0.0004275335657081
  -3.2692038995108614    5.6632839660429717   -0.0004275335657081
   0.0000000000000000    0.0000000000000000   14.7004489898681641
Dy S
6 18
direct
   0.3333333432674408    0.6666666865348816    0.5046386718750000 Dy
   0.6666666269302368    0.3333333134651184    0.4953613281250000 Dy
   0.0000000000000000    0.0000000000000000    0.8379720449447632 Dy
   0.3333333432674408    0.6666666269302368    0.8286947011947632 Dy
   0.6666666865348816    0.3333333730697632    0.1713054180145264 Dy
   0.0000000000000000    0.0000000000000000    0.1620280146598816 Dy
   0.6624450683593750    0.9859313964843750    0.2588138580322266 S
   0.0140686035156250    0.6765136718750000    0.2588138580322266 S
   0.3234863281250000    0.3375549316406250    0.2588138580322266 S
   0.3375549316406250    0.0140686035156250    0.7411861419677734 S
   0.9859313964843750    0.3234863281250000    0.7411861419677734 S
   0.6765136718750000    0.6624450683593750    0.7411861419677734 S
   0.3291118144989014    0.3192647695541382    0.5921472311019897 S
   0.6807352900505066    0.0098470151424408    0.5921472311019897 S
   0.9901530146598816    0.6708883047103882    0.5921472311019897 S
   0.0042216181755066    0.3474019765853882    0.0745194852352142 S
   0.6525981426239014    0.6568197011947632    0.0745194852352142 S
   0.3431803584098816    0.9957784414291382    0.0745194852352142 S
   0.9957784414291382    0.6525981426239014    0.9254805445671082 S
   0.3474019765853882    0.3431803584098816    0.9254805445671082 S
   0.6568197011947632    0.0042216181755066    0.9254805445671082 S
   0.6708883047103882    0.6807352900505066    0.4078528285026550 S
   0.3192647695541382    0.9901530146598816    0.4078528285026550 S
   0.0098470151424408    0.3291118144989014    0.4078528285026550 S
