Sr3 Li6 Sb12
1.0
   5.2422494776262445    0.0000000000000000   -0.0003427414416457
  -2.6208273394779753    4.5400929111987827   -0.0003427414416457
   0.0000000000000000    0.0000000000000000   24.1586494445800781
Sr Li Sb
3 6 12
direct
   0.0000000000000000    0.0000000000000000    0.0000000000000000 Sr
   0.6666666865348816    0.3333333432674408    0.3333333432674408 Sr
   0.3333333432674408    0.6666666865348816    0.6666666865348816 Sr
   0.0000000000000000    0.0000000000000000    0.2457885742187500 Li
   0.0000000000000000    0.0000000000000000    0.7542114257812500 Li
   0.6666666865348816    0.3333333432674408    0.5791219472885132 Li
   0.6666666865348816    0.3333333432674408    0.0875447690486908 Li
   0.3333333432674408    0.6666666865348816    0.9124552607536316 Li
   0.3333333432674408    0.6666666865348816    0.4208781123161316 Li
   0.0000000000000000    0.0000000000000000    0.1332855224609375 Sb
   0.0000000000000000    0.0000000000000000    0.8667144775390625 Sb
   0.6666666865348816    0.3333333432674408    0.4666188657283783 Sb
   0.6666666865348816    0.3333333432674408    0.2000478208065033 Sb
   0.3333333432674408    0.6666666865348816    0.7999522089958191 Sb
   0.3333333432674408    0.6666666865348816    0.5333811640739441 Sb
   0.6666666865348816    0.3333333432674408    0.9250488281250000 Sb
   0.3333333432674408    0.6666666865348816    0.0749511718750000 Sb
   0.3333333730697632    0.6666666865348816    0.2583822011947632 Sb
   0.0000000000000000    0.0000000000000000    0.4082845449447632 Sb
   0.0000000000000000    0.0000000000000000    0.5917155742645264 Sb
   0.6666666865348816    0.3333333730697632    0.7416178584098816 Sb
