Mn2 Tl2 Ga4 Se8
1.0
   5.7007474777449243    0.0000000000000000   -0.0003727183182181
  -0.0003727426875639    5.7007474655590569   -0.0003727183182181
   0.0000000000000000    0.0000000000000000   11.1372518539428711
Mn Ga Tl Se
2 4 2 8
direct
   0.0000000000000000    0.0000000000000000    0.0000000000000000 Mn
   0.5000000000000000    0.5000000000000000    0.5000000000000000 Mn
   0.0000000000000000    0.0000000000000000    0.5000000000000000 Ga
   0.5000000000000000    0.5000000000000000    0.0000000000000000 Ga
   0.0000000000000000    0.5000000000000000    0.2500000000000000 Ga
   0.5000000000000000    0.0000000000000000    0.7500000000000000 Ga
   0.5000000000000000    0.0000000000000000    0.2500000000000000 Tl
   0.0000000000000000    0.5000000000000000    0.7500000000000000 Tl
   0.7791748046875000    0.7290039062500000    0.1131591796875000 Se
   0.2208251953125000    0.2709960937500000    0.1131591796875000 Se
   0.7290039062500000    0.2208251953125000    0.8868408203125000 Se
   0.2709960937500000    0.7791748046875000    0.8868408203125000 Se
   0.2791748046875000    0.2290039062500000    0.6131591796875000 Se
   0.7208251953125000    0.7709960937500000    0.6131591796875000 Se
   0.2290039062500000    0.7208251953125000    0.3868408203125000 Se
   0.7709960937500000    0.2791748046875000    0.3868408203125000 Se
