Li10 Co4 O12
1.0
  12.6914698918624094    0.0000000000000000   -3.0372914466707615
  -0.0002574836091135    3.1069462126248917   -0.0002031340233296
   0.0000000000000000    0.0000000000000000    6.0544514656066895
Li O Co
10 12 4
direct
   0.0000000000000000    0.0000000000000000    0.0000000000000000 Li
   0.5000000000000000    0.5000000000000000    0.0000000000000000 Li
   0.0000000000000000    0.0000000000000000    0.5000000000000000 Li
   0.5000000000000000    0.5000000000000000    0.5000000000000000 Li
   0.5000000000000000    0.0000000000000000    0.5000000000000000 Li
   0.0000000000000000    0.5000000000000000    0.5000000000000000 Li
   0.3297424316406250    0.0000000000000000    0.1321411132812500 Li
   0.6702575683593750    0.0000000000000000    0.8678588867187500 Li
   0.8297424316406250    0.5000000000000000    0.1321411132812500 Li
   0.1702575683593750    0.5000000000000000    0.8678588867187500 Li
   0.8279724121093750    0.0000000000000000    0.4209594726562500 O
   0.1720275878906250    0.0000000000000000    0.5790405273437500 O
   0.3279724121093750    0.5000000000000000    0.4209594726562500 O
   0.6720275878906250    0.5000000000000000    0.5790405273437500 O
   0.4789123535156250    0.0000000000000000    0.7421569824218750 O
   0.5210876464843750    0.0000000000000000    0.2578430175781250 O
   0.9789123535156250    0.5000000000000000    0.7421569824218750 O
   0.0210876464843750    0.5000000000000000    0.2578430175781250 O
   0.8334770202636719    0.0000000000000000    0.8993225097656250 O
   0.1665229797363281    0.0000000000000000    0.1006774902343750 O
   0.3334770202636719    0.5000000000000000    0.8993225097656250 O
   0.6665229797363281    0.5000000000000000    0.1006774902343750 O
   0.3307495117187500    0.0000000000000000    0.6820907592773438 Co
   0.6692504882812500    0.0000000000000000    0.3179092407226562 Co
   0.8307495117187500    0.5000000000000000    0.6820907592773438 Co
   0.1692504882812500    0.5000000000000000    0.3179092407226562 Co
