Cu6 S4
1.0
   6.2952444151565201    0.0000000000000000   -3.2601837168062353
  -0.0003564869940502    3.3165497517372051   -0.0002168380300515
   0.0000000000000000    0.0000000000000000    8.0325517654418945
Cu S Cu
2 4 4
direct
   0.0000000000000000    0.0000000000000000    0.0000000000000000 Cu
   0.5000000000000000    0.5000000000000000    0.0000000000000000 Cu
   0.7424011230468750    0.0000000000000000    0.2336425781250000 S
   0.2575988769531250    0.0000000000000000    0.7663574218750000 S
   0.2424011230468750    0.5000000000000000    0.2336425781250000 S
   0.7575988769531250    0.5000000000000000    0.7663574218750000 S
   0.1146697998046875    0.0000000000000000    0.3799743652343750 Cu
   0.8853302001953125    0.0000000000000000    0.6200256347656250 Cu
   0.6146697998046875    0.5000000000000000    0.3799743652343750 Cu
   0.3853302001953125    0.5000000000000000    0.6200256347656250 Cu
