Ce4 Ge4 Rh4
1.0
   8.4553256767412943    0.0000000000000000   -6.8186313189421277
  -0.0005895409261027    4.3121509056838843   -0.0002819310370726
   0.0000000000000000    0.0000000000000000    7.2334518432617188
Ge Rh Ce
4 4 4
direct
   0.1650390625000000    0.0000000000000000    0.6024169921875000 Ge
   0.8349609375000000    0.0000000000000000    0.3975830078125000 Ge
   0.6650390625000000    0.5000000000000000    0.6024169921875000 Ge
   0.3349609375000000    0.5000000000000000    0.3975830078125000 Ge
   0.8290977478027344    0.0000000000000000    0.7668914794921875 Rh
   0.1709022521972656    0.0000000000000000    0.2331085205078125 Rh
   0.3290977478027344    0.5000000000000000    0.7668914794921875 Rh
   0.6709022521972656    0.5000000000000000    0.2331085205078125 Rh
   0.5563964843750000    0.0000000000000000    0.8086853027343750 Ce
   0.4436035156250000    0.0000000000000000    0.1913146972656250 Ce
   0.0563964843750000    0.5000000000000000    0.8086853027343750 Ce
   0.9436035156250000    0.5000000000000000    0.1913146972656250 Ce
