Nd10 O18
1.0
  13.8257064571826600    0.0000000000000000   -4.5955144519436972
  -0.0003361945956672    3.7095486886136948   -0.0002425325379951
   0.0000000000000000    0.0000000000000000    9.8665513992309570
O Nd
18 10
direct
   0.1793212890625000    0.0000000000000000    0.1526184082031250 O
   0.6793212890625000    0.5000000000000000    0.1526184082031250 O
   0.8104248046875000    0.0000000000000000    0.4022216796875000 O
   0.3104248046875000    0.5000000000000000    0.4022216796875000 O
   0.7764892578125000    0.0000000000000000    0.0370483398437500 O
   0.2764892578125000    0.5000000000000000    0.0370483398437500 O
   0.1907958984375000    0.0000000000000000    0.4647598266601562 O
   0.6907958984375000    0.5000000000000000    0.4647598266601562 O
   0.9405517578125000    0.0000000000000000    0.7518310546875000 O
   0.4405517578125000    0.5000000000000000    0.7518310546875000 O
   0.5490722656250000    0.0000000000000000    0.9763793945312500 O
   0.0490722656250000    0.5000000000000000    0.9763793945312500 O
   0.9848022460937500    0.0000000000000000    0.2163848876953125 O
   0.4848022460937500    0.5000000000000000    0.2163848876953125 O
   0.4707031250000000    0.0000000000000000    0.5107421875000000 O
   0.9707031250000000    0.5000000000000000    0.5107421875000000 O
   0.2989501953125000    0.0000000000000000    0.8323669433593750 O
   0.7989501953125000    0.5000000000000000    0.8323669433593750 O
   0.1422119140625000    0.0000000000000000    0.9038085937500000 Nd
   0.6422119140625000    0.5000000000000000    0.9038085937500000 Nd
   0.3634338378906250    0.0000000000000000    0.2608032226562500 Nd
   0.8634338378906250    0.5000000000000000    0.2608032226562500 Nd
   0.6401062011718750    0.0000000000000000    0.2624816894531250 Nd
   0.1401062011718750    0.5000000000000000    0.2624816894531250 Nd
   0.3521728515625000    0.0000000000000000    0.6073913574218750 Nd
   0.8521728515625000    0.5000000000000000    0.6073913574218750 Nd
   0.9091796875000000    0.0000000000000000    0.9620971679687500 Nd
   0.4091796875000000    0.5000000000000000    0.9620971679687500 Nd
