In6
1.0
   4.1287517459363121    0.0000000000000000   -0.0002699402864437
  -2.0641416437447151    3.5757391199765975   -0.0002699402864437
   0.0000000000000000    0.0000000000000000   10.2595500946044922
In
6
direct
   0.0000000000000000    0.0000000000000000    0.6588134765625000 In
   0.0000000000000000    0.0000000000000000    0.0027465820312500 In
   0.3333333432674408    0.6666666865348816    0.1643676757812500 In
   0.3333333432674408    0.6666666865348816    0.4913635253906250 In
   0.3333333432674408    0.6666666865348816    0.8282470703125000 In
   0.6666666865348816    0.3333333432674408    0.3258056640625000 In
