U4 Al12
1.0
   4.6265487572014665    0.0000000000000000   -0.0003024865561350
  -0.0005440514384490    8.3207530619637691   -0.0005440158691995
   0.0000000000000000    0.0000000000000000    8.5172538757324219
Al U Al
4 4 8
direct
   0.0000000000000000    0.5000000000000000    0.2762603759765625 Al
   0.5000000000000000    0.0000000000000000    0.7762603759765625 Al
   0.5000000000000000    0.0000000000000000    0.2661132812500000 Al
   0.0000000000000000    0.5000000000000000    0.7661132812500000 Al
   0.5000000000000000    0.0000000000000000    0.5068359375000000 U
   0.0000000000000000    0.5000000000000000    0.0068359375000000 U
   0.0000000000000000    0.5000000000000000    0.5038576126098633 U
   0.5000000000000000    0.0000000000000000    0.0038576126098633 U
   0.0000000000000000    0.8385238647460938    0.2792663574218750 Al
   0.0000000000000000    0.1614761352539062    0.2792663574218750 Al
   0.5000000000000000    0.3385238647460938    0.7792663574218750 Al
   0.5000000000000000    0.6614761352539062    0.7792663574218750 Al
   0.0000000000000000    0.1613769531250000    0.7375488281250000 Al
   0.0000000000000000    0.8386230468750000    0.7375488281250000 Al
   0.5000000000000000    0.6613769531250000    0.2375488281250000 Al
   0.5000000000000000    0.3386230468750000    0.2375488281250000 Al
