Ca4 Si8 Pd8 Pb4
1.0
   8.0485602989704503    0.0000000000000000   -2.9806482191731782
  -0.0009009497604945    9.5914525357575897   -0.0006270949709882
   0.0000000000000000    0.0000000000000000    6.6046490669250488
Ca Pb Si Pd
4 4 8 8
direct
   0.5000000000000000    0.7626342773437500    0.2500000000000000 Ca
   0.5000000000000000    0.2373657226562500    0.7500000000000000 Ca
   0.0000000000000000    0.2626342773437500    0.2500000000000000 Ca
   0.0000000000000000    0.7373657226562500    0.7500000000000000 Ca
   0.5000000000000000    0.1104125976562500    0.2500000000000000 Pb
   0.5000000000000000    0.8895874023437500    0.7500000000000000 Pb
   0.0000000000000000    0.6104125976562500    0.2500000000000000 Pb
   0.0000000000000000    0.3895874023437500    0.7500000000000000 Pb
   0.5768508911132812    0.3934936523437500    0.1308593750000000 Si
   0.4231491088867188    0.3934936523437500    0.3691406250000000 Si
   0.4231491088867188    0.6065063476562500    0.8691406250000000 Si
   0.5768508911132812    0.6065063476562500    0.6308593750000000 Si
   0.0768508911132812    0.8934936523437500    0.1308593750000000 Si
   0.9231491088867188    0.8934936523437500    0.3691406250000000 Si
   0.9231491088867188    0.1065063476562500    0.8691406250000000 Si
   0.0768508911132812    0.1065063476562500    0.6308593750000000 Si
   0.2387084960937500    0.9948272705078125    0.9404907226562500 Pd
   0.7612915039062500    0.9948272705078125    0.5595092773437500 Pd
   0.7612915039062500    0.0051727294921875    0.0595092773437500 Pd
   0.2387084960937500    0.0051727294921875    0.4404907226562500 Pd
   0.7387084960937500    0.4948272705078125    0.9404907226562500 Pd
   0.2612915039062500    0.4948272705078125    0.5595092773437500 Pd
   0.2612915039062500    0.5051727294921875    0.0595092773437500 Pd
   0.7387084960937500    0.5051727294921875    0.4404907226562500 Pd
