Er8 Pd4 Pt4
1.0
   6.9321484417573238    0.0000000000000000   -0.0004532280580637
  -0.0004532576913571    6.9321484269392242   -0.0004532280580637
   0.0000000000000000    0.0000000000000000    6.9321484565734863
Pt Pd Er
4 4 8
direct
   0.0000000000000000    0.0000000000000000    0.0000000000000000 Pt
   0.0000000000000000    0.5000000000000000    0.5000000000000000 Pt
   0.5000000000000000    0.0000000000000000    0.5000000000000000 Pt
   0.5000000000000000    0.5000000000000000    0.0000000000000000 Pt
   0.5000000000000000    0.0000000000000000    0.0000000000000000 Pd
   0.0000000000000000    0.5000000000000000    0.0000000000000000 Pd
   0.0000000000000000    0.0000000000000000    0.5000000000000000 Pd
   0.5000000000000000    0.5000000000000000    0.5000000000000000 Pd
   0.2500000000000000    0.2500000000000000    0.2500000000000000 Er
   0.7500000000000000    0.7500000000000000    0.2500000000000000 Er
   0.7500000000000000    0.2500000000000000    0.7500000000000000 Er
   0.2500000000000000    0.7500000000000000    0.7500000000000000 Er
   0.2500000000000000    0.2500000000000000    0.7500000000000000 Er
   0.7500000000000000    0.7500000000000000    0.7500000000000000 Er
   0.2500000000000000    0.7500000000000000    0.2500000000000000 Er
   0.7500000000000000    0.2500000000000000    0.2500000000000000 Er
