Ac1 Co1 O3
1.0
   3.7881500640013206    0.0000000000000000   -0.0002476715424643
  -0.0002476877359089    3.7881500559038042   -0.0002476715424643
   0.0000000000000000    0.0000000000000000    3.7881500720977783
Ac Co O
1 1 3
direct
   0.0000000000000000    0.0000000000000000    0.0000000000000000 Ac
   0.5000000000000000    0.5000000000000000    0.5000000000000000 Co
   0.5000000000000000    0.5000000000000000    0.0000000000000000 O
   0.0000000000000000    0.5000000000000000    0.5000000000000000 O
   0.5000000000000000    0.0000000000000000    0.5000000000000000 O
