Li4 Nd8 Ru4
1.0
   7.5740494566207328    0.0000000000000000   -0.0004951959346723
  -0.0004952283119405    7.5740494404305112   -0.0004951959346723
   0.0000000000000000    0.0000000000000000    7.5740494728088379
Ru Li Nd
4 4 8
direct
   0.0000000000000000    0.0000000000000000    0.0000000000000000 Ru
   0.0000000000000000    0.5000000000000000    0.5000000000000000 Ru
   0.5000000000000000    0.0000000000000000    0.5000000000000000 Ru
   0.5000000000000000    0.5000000000000000    0.0000000000000000 Ru
   0.5000000000000000    0.0000000000000000    0.0000000000000000 Li
   0.0000000000000000    0.5000000000000000    0.0000000000000000 Li
   0.0000000000000000    0.0000000000000000    0.5000000000000000 Li
   0.5000000000000000    0.5000000000000000    0.5000000000000000 Li
   0.2500000000000000    0.2500000000000000    0.2500000000000000 Nd
   0.7500000000000000    0.7500000000000000    0.2500000000000000 Nd
   0.7500000000000000    0.2500000000000000    0.7500000000000000 Nd
   0.2500000000000000    0.7500000000000000    0.7500000000000000 Nd
   0.2500000000000000    0.2500000000000000    0.7500000000000000 Nd
   0.7500000000000000    0.7500000000000000    0.7500000000000000 Nd
   0.2500000000000000    0.7500000000000000    0.2500000000000000 Nd
   0.7500000000000000    0.2500000000000000    0.2500000000000000 Nd
