La1 Ga2 Ni3 Rh1
1.0
   4.2990488914158398    0.0000000000000000   -0.0002810744168201
  -2.1492805553155363    3.7232263516104287   -0.0002810744168201
   0.0000000000000000    0.0000000000000000    7.1024494171142578
Rh Ni La Ga
1 3 1 2
direct
   0.0000000000000000    0.0000000000000000    0.5000000000000000 Rh
   0.3333333432674408    0.6666666865348816    0.0000000000000000 Ni
   0.3333333432674408    0.6666666865348816    0.5000000000000000 Ni
   0.6666666865348816    0.3333333432674408    0.0000000000000000 Ni
   0.6666666865348816    0.3333333432674408    0.5000000000000000 La
   0.0000000000000000    0.0000000000000000    0.8434448242187500 Ga
   0.0000000000000000    0.0000000000000000    0.1565551757812500 Ga
