Er4 Ni6 O20
1.0
   5.2980484731820328    0.0000000000000000   -0.4920681460655495
  -0.0003957834603333    5.5173482635018161   -0.0003607275675892
   0.0000000000000000    0.0000000000000000   10.6918478012084961
Ni O Er O
6 12 4 8
direct
   0.0000000000000000    0.0000000000000000    0.0000000000000000 Ni
   0.5000000000000000    0.5000000000000000    0.0000000000000000 Ni
   0.0000000000000000    0.6888427734375000    0.0000000000000000 Ni
   0.0000000000000000    0.3111572265625000    0.0000000000000000 Ni
   0.5000000000000000    0.1888427734375000    0.0000000000000000 Ni
   0.5000000000000000    0.8111572265625000    0.0000000000000000 Ni
   0.7874221801757812    0.0000000000000000    0.4490051269531250 O
   0.2125778198242188    0.0000000000000000    0.5509948730468750 O
   0.2874221801757812    0.5000000000000000    0.4490051269531250 O
   0.7125778198242188    0.5000000000000000    0.5509948730468750 O
   0.8118896484375000    0.0000000000000000    0.8824234008789062 O
   0.1881103515625000    0.0000000000000000    0.1175765991210938 O
   0.3118896484375000    0.5000000000000000    0.8824234008789062 O
   0.6881103515625000    0.5000000000000000    0.1175765991210938 O
   0.7121582031250000    0.0000000000000000    0.0714416503906250 O
   0.2878417968750000    0.0000000000000000    0.9285583496093750 O
   0.2121582031250000    0.5000000000000000    0.0714416503906250 O
   0.7878417968750000    0.5000000000000000    0.9285583496093750 O
   0.2280731201171875    0.0000000000000000    0.3535766601562500 Er
   0.7719268798828125    0.0000000000000000    0.6464233398437500 Er
   0.7280731201171875    0.5000000000000000    0.3535766601562500 Er
   0.2719268798828125    0.5000000000000000    0.6464233398437500 Er
   0.4964294433593750    0.7754516601562500    0.2816009521484375 O
   0.5035705566406250    0.7754516601562500    0.7183990478515625 O
   0.5035705566406250    0.2245483398437500    0.7183990478515625 O
   0.4964294433593750    0.2245483398437500    0.2816009521484375 O
   0.9964294433593750    0.2754516601562500    0.2816009521484375 O
   0.0035705566406250    0.2754516601562500    0.7183990478515625 O
   0.0035705566406250    0.7245483398437500    0.7183990478515625 O
   0.9964294433593750    0.7245483398437500    0.2816009521484375 O
