Mg4 Te4
1.0
   5.9889483323840764    0.0000000000000000   -0.0003915610644140
  -0.0003915866657503    5.9889483195821533   -0.0003915610644140
   0.0000000000000000    0.0000000000000000    5.9889483451843262
Te Mg
4 4
direct
   0.0000000000000000    0.0000000000000000    0.0000000000000000 Te
   0.0000000000000000    0.5000000000000000    0.5000000000000000 Te
   0.5000000000000000    0.0000000000000000    0.5000000000000000 Te
   0.5000000000000000    0.5000000000000000    0.0000000000000000 Te
   0.5000000000000000    0.0000000000000000    0.0000000000000000 Mg
   0.0000000000000000    0.5000000000000000    0.0000000000000000 Mg
   0.0000000000000000    0.0000000000000000    0.5000000000000000 Mg
   0.5000000000000000    0.5000000000000000    0.5000000000000000 Mg
