Ba4 Sr4 Ce4 Nb4 O24
1.0
   8.6744489484399789    0.0000000000000000   -0.0005671407190290
  -0.0005671778002446    8.6744489298975527   -0.0005671407190290
   0.0000000000000000    0.0000000000000000    8.6744489669799805
Ce Nb Ba Sr O
4 4 4 4 24
direct
   0.0000000000000000    0.0000000000000000    0.0000000000000000 Ce
   0.0000000000000000    0.5000000000000000    0.5000000000000000 Ce
   0.5000000000000000    0.0000000000000000    0.5000000000000000 Ce
   0.5000000000000000    0.5000000000000000    0.0000000000000000 Ce
   0.5000000000000000    0.0000000000000000    0.0000000000000000 Nb
   0.0000000000000000    0.5000000000000000    0.0000000000000000 Nb
   0.0000000000000000    0.0000000000000000    0.5000000000000000 Nb
   0.5000000000000000    0.5000000000000000    0.5000000000000000 Nb
   0.2500000000000000    0.2500000000000000    0.2500000000000000 Ba
   0.7500000000000000    0.7500000000000000    0.2500000000000000 Ba
   0.7500000000000000    0.2500000000000000    0.7500000000000000 Ba
   0.2500000000000000    0.7500000000000000    0.7500000000000000 Ba
   0.2500000000000000    0.2500000000000000    0.7500000000000000 Sr
   0.7500000000000000    0.7500000000000000    0.7500000000000000 Sr
   0.7500000000000000    0.2500000000000000    0.2500000000000000 Sr
   0.2500000000000000    0.7500000000000000    0.2500000000000000 Sr
   0.2696228027343750    0.0000000000000000    0.0000000000000000 O
   0.7303771972656250    0.0000000000000000    0.0000000000000000 O
   0.0000000000000000    0.2696228027343750    0.0000000000000000 O
   0.0000000000000000    0.7303771972656250    0.0000000000000000 O
   0.0000000000000000    0.0000000000000000    0.2696228027343750 O
   0.0000000000000000    0.0000000000000000    0.7303771972656250 O
   0.2696228027343750    0.5000000000000000    0.5000000000000000 O
   0.7303771972656250    0.5000000000000000    0.5000000000000000 O
   0.0000000000000000    0.7696228027343750    0.5000000000000000 O
   0.0000000000000000    0.2303771972656250    0.5000000000000000 O
   0.0000000000000000    0.5000000000000000    0.7696228027343750 O
   0.0000000000000000    0.5000000000000000    0.2303771972656250 O
   0.7696228027343750    0.0000000000000000    0.5000000000000000 O
   0.2303771972656250    0.0000000000000000    0.5000000000000000 O
   0.5000000000000000    0.2696228027343750    0.5000000000000000 O
   0.5000000000000000    0.7303771972656250    0.5000000000000000 O
   0.5000000000000000    0.0000000000000000    0.7696228027343750 O
   0.5000000000000000    0.0000000000000000    0.2303771972656250 O
   0.7696228027343750    0.5000000000000000    0.0000000000000000 O
   0.2303771972656250    0.5000000000000000    0.0000000000000000 O
   0.5000000000000000    0.7696228027343750    0.0000000000000000 O
   0.5000000000000000    0.2303771972656250    0.0000000000000000 O
   0.5000000000000000    0.5000000000000000    0.2696228027343750 O
   0.5000000000000000    0.5000000000000000    0.7303771972656250 O
