Nd1 Cu5
1.0
   5.3994521979323435    0.0000000000000000   -0.0003530194505841
  -2.6994197813251142    4.6762396091247389   -0.0003530194505841
   0.0000000000000000    0.0000000000000000    3.9322504997253418
Nd Cu
1 5
direct
   0.0000000000000000    0.0000000000000000    0.0000000000000000 Nd
   0.6666666865348816    0.3333333432674408    0.0000000000000000 Cu
   0.3333333134651184    0.6666666269302368    0.0000000000000000 Cu
   0.5000000000000000    0.0000000000000000    0.5000000000000000 Cu
   0.0000000000000000    0.5000000000000000    0.5000000000000000 Cu
   0.5000000000000000    0.5000000000000000    0.5000000000000000 Cu
