Co2 B8
1.0
   4.2990488914158398    0.0000000000000000   -0.0002810744168201
  -0.0003513293976882    5.3732514151707402   -0.0003513064283105
   0.0000000000000000    0.0000000000000000    4.3383512496948242
Co B
2 8
direct
   0.0000000000000000    0.0000000000000000    0.0000000000000000 Co
   0.5000000000000000    0.5000000000000000    0.5000000000000000 Co
   0.0000000000000000    0.3457031250000000    0.0000000000000000 B
   0.0000000000000000    0.6542968750000000    0.0000000000000000 B
   0.5000000000000000    0.8457031250000000    0.5000000000000000 B
   0.5000000000000000    0.1542968750000000    0.5000000000000000 B
   0.0000000000000000    0.6631011962890625    0.5000000000000000 B
   0.0000000000000000    0.3368988037109375    0.5000000000000000 B
   0.5000000000000000    0.1631011962890625    0.0000000000000000 B
   0.5000000000000000    0.8368988037109375    0.0000000000000000 B
