Li9 Fe9 O24
1.0
   5.9103507869282845    0.0000000000000000   -0.0003864223093520
  -2.9548400919104831    5.1187074985568612   -0.0003864223093520
   0.0000000000000000    0.0000000000000000   14.4384527206420898
Fe O Fe Li O
3 6 6 9 18
direct
   0.0000000000000000    0.0000000000000000    0.0000000000000000 Fe
   0.6666666865348816    0.3333333432674408    0.3333333432674408 Fe
   0.3333333432674408    0.6666666865348816    0.6666666865348816 Fe
   0.6666666865348816    0.3333333432674408    0.0771484375000000 O
   0.3333333432674408    0.6666666865348816    0.9228515625000000 O
   0.3333333730697632    0.6666666865348816    0.4104817807674408 O
   0.0000000000000000    0.0000000000000000    0.2561849057674408 O
   0.0000000000000000    0.0000000000000000    0.7438151240348816 O
   0.6666666865348816    0.3333333730697632    0.5895182490348816 O
   0.3333333432674408    0.6666666865348816    0.0405883789062500 Fe
   0.6666666865348816    0.3333333432674408    0.9594116210937500 Fe
   0.0000000000000000    0.0000000000000000    0.3739217221736908 Fe
   0.3333333730697632    0.6666666865348816    0.2927449643611908 Fe
   0.6666666865348816    0.3333333730697632    0.7072550654411316 Fe
   0.0000000000000000    0.0000000000000000    0.6260783076286316 Fe
   0.3333333432674408    0.1666666716337204    0.1666666716337204 Li
   0.8333333134651184    0.1666666716337204    0.1666666716337204 Li
   0.8333333134651184    0.6666666269302368    0.1666666716337204 Li
   0.1666666716337204    0.3333333432674408    0.8333333134651184 Li
   0.1666666716337204    0.8333333134651184    0.8333333134651184 Li
   0.6666666269302368    0.8333333134651184    0.8333333134651184 Li
   0.0000000000000000    0.5000000000000000    0.5000000000000000 Li
   0.5000000000000000    0.5000000000000000    0.5000000000000000 Li
   0.5000000000000000    0.0000000000000000    0.5000000000000000 Li
   0.4955635070800781    0.5044364929199219    0.7427368164062500 O
   0.4955635070800781    0.9911270141601562    0.7427368164062500 O
   0.0088729858398438    0.5044364929199219    0.7427368164062500 O
   0.5044364929199219    0.4955635070800781    0.2572631835937500 O
   0.9911270141601562    0.4955635070800781    0.2572631835937500 O
   0.5044364929199219    0.0088729858398438    0.2572631835937500 O
   0.1622302532196045    0.8377698659896851    0.0760701894760132 O
   0.1622301936149597    0.3244603574275970    0.0760701894760132 O
   0.6755396723747253    0.8377698659896851    0.0760701894760132 O
   0.1711032390594482    0.8288968801498413    0.5905965566635132 O
   0.6577937006950378    0.8288968801498413    0.5905965566635132 O
   0.1711031794548035    0.3422063291072845    0.5905965566635132 O
   0.8288968801498413    0.1711032390594482    0.4094035625457764 O
   0.8288968801498413    0.6577937006950378    0.4094035625457764 O
   0.3422063291072845    0.1711031794548035    0.4094035625457764 O
   0.8377698659896851    0.1622302532196045    0.9239298701286316 O
   0.3244603574275970    0.1622301936149597    0.9239298701286316 O
   0.8377698659896851    0.6755396723747253    0.9239298701286316 O
