K8 Pt4 Br24
1.0
  10.5739516985915749    0.0000000000000000   -0.0006913313577569
  -0.0006913765588970   10.5739516759887895   -0.0006913313577569
   0.0000000000000000    0.0000000000000000   10.5739517211914062
Pt K Br
4 8 24
direct
   0.0000000000000000    0.0000000000000000    0.0000000000000000 Pt
   0.0000000000000000    0.5000000000000000    0.5000000000000000 Pt
   0.5000000000000000    0.0000000000000000    0.5000000000000000 Pt
   0.5000000000000000    0.5000000000000000    0.0000000000000000 Pt
   0.2500000000000000    0.2500000000000000    0.2500000000000000 K
   0.7500000000000000    0.7500000000000000    0.2500000000000000 K
   0.7500000000000000    0.2500000000000000    0.7500000000000000 K
   0.2500000000000000    0.7500000000000000    0.7500000000000000 K
   0.2500000000000000    0.2500000000000000    0.7500000000000000 K
   0.7500000000000000    0.7500000000000000    0.7500000000000000 K
   0.2500000000000000    0.7500000000000000    0.2500000000000000 K
   0.7500000000000000    0.2500000000000000    0.2500000000000000 K
   0.2366333007812500    0.0000000000000000    0.0000000000000000 Br
   0.7633666992187500    0.0000000000000000    0.0000000000000000 Br
   0.0000000000000000    0.2366333007812500    0.0000000000000000 Br
   0.0000000000000000    0.7633666992187500    0.0000000000000000 Br
   0.0000000000000000    0.0000000000000000    0.2366333007812500 Br
   0.0000000000000000    0.0000000000000000    0.7633666992187500 Br
   0.2366333007812500    0.5000000000000000    0.5000000000000000 Br
   0.7633666992187500    0.5000000000000000    0.5000000000000000 Br
   0.0000000000000000    0.7366333007812500    0.5000000000000000 Br
   0.0000000000000000    0.2633666992187500    0.5000000000000000 Br
   0.0000000000000000    0.5000000000000000    0.7366333007812500 Br
   0.0000000000000000    0.5000000000000000    0.2633666992187500 Br
   0.7366333007812500    0.0000000000000000    0.5000000000000000 Br
   0.2633666992187500    0.0000000000000000    0.5000000000000000 Br
   0.5000000000000000    0.2366333007812500    0.5000000000000000 Br
   0.5000000000000000    0.7633666992187500    0.5000000000000000 Br
   0.5000000000000000    0.0000000000000000    0.7366333007812500 Br
   0.5000000000000000    0.0000000000000000    0.2633666992187500 Br
   0.7366333007812500    0.5000000000000000    0.0000000000000000 Br
   0.2633666992187500    0.5000000000000000    0.0000000000000000 Br
   0.5000000000000000    0.7366333007812500    0.0000000000000000 Br
   0.5000000000000000    0.2633666992187500    0.0000000000000000 Br
   0.5000000000000000    0.5000000000000000    0.2366333007812500 Br
   0.5000000000000000    0.5000000000000000    0.7633666992187500 Br
