Mo1 W2 Se5 S3
1.0
   3.6178491038245353    0.0000000000000000   -0.0002365371626806
  -1.8087193068313665    3.1332677203104518   -0.0002365371626806
   0.0000000000000000    0.0000000000000000   32.4378509521484375
Se W S Se Mo
4 2 3 1 1
direct
   0.0000000000000000    0.0000000000000000    0.2354125976562500 Se
   0.0000000000000000    0.0000000000000000    0.7272186279296875 Se
   0.0000000000000000    0.0000000000000000    0.6261596679687500 Se
   0.0000000000000000    0.0000000000000000    0.3347167968750000 Se
   0.0000000000000000    0.0000000000000000    0.4918212890625000 W
   0.0000000000000000    0.0000000000000000    0.0911254882812500 W
   0.3333333432674408    0.6666666865348816    0.5284423828125000 S
   0.3333333432674408    0.6666666865348816    0.4505920410156250 S
   0.3333333432674408    0.6666666865348816    0.0443725585937500 S
   0.3333333432674408    0.6666666865348816    0.1409912109375000 Se
   0.3333333432674408    0.6666666865348816    0.2873535156250000 Mo
