Li4 Nb4 O12
1.0
   9.6276801026861953    0.0000000000000000   -3.6200050976750080
  -0.0004232891534376    4.4824480714771680   -0.0002930651674491
   0.0000000000000000    0.0000000000000000    6.6701517105102539
Li O Nb
4 12 4
direct
   0.3156738281250000    0.0000000000000000    0.9175729751586914 Li
   0.6843261718750000    0.0000000000000000    0.0824270248413086 Li
   0.8156738281250000    0.5000000000000000    0.9175729751586914 Li
   0.1843261718750000    0.5000000000000000    0.0824270248413086 Li
   0.4856567382812500    0.0000000000000000    0.7681732177734375 O
   0.5143432617187500    0.0000000000000000    0.2318267822265625 O
   0.9856567382812500    0.5000000000000000    0.7681732177734375 O
   0.0143432617187500    0.5000000000000000    0.2318267822265625 O
   0.1334838867187500    0.0000000000000000    0.0493774414062500 O
   0.8665161132812500    0.0000000000000000    0.9506225585937500 O
   0.6334838867187500    0.5000000000000000    0.0493774414062500 O
   0.3665161132812500    0.5000000000000000    0.9506225585937500 O
   0.1352233886718750    0.0000000000000000    0.6047630310058594 O
   0.8647766113281250    0.0000000000000000    0.3952369689941406 O
   0.6352233886718750    0.5000000000000000    0.6047630310058594 O
   0.3647766113281250    0.5000000000000000    0.3952369689941406 O
   0.0229492187500000    0.0000000000000000    0.2742919921875000 Nb
   0.9770507812500000    0.0000000000000000    0.7257080078125000 Nb
   0.5229492187500000    0.5000000000000000    0.2742919921875000 Nb
   0.4770507812500000    0.5000000000000000    0.7257080078125000 Nb
