Ca8 As4
1.0
   7.0762491074954781    0.0000000000000000   -0.0004626494467496
  -0.0003299158583890    5.0457515500851748   -0.0003298942889956
   0.0000000000000000    0.0000000000000000    9.8665513992309570
Ca As
8 4
direct
   0.8458251953125000    0.2500000000000000    0.5736083984375000 Ca
   0.6541748046875000    0.7500000000000000    0.0736083984375000 Ca
   0.1541748046875000    0.7500000000000000    0.4263916015625000 Ca
   0.3458251953125000    0.2500000000000000    0.9263916015625000 Ca
   0.9733886718750000    0.2500000000000000    0.1763000488281250 Ca
   0.5266113281250000    0.7500000000000000    0.6763000488281250 Ca
   0.0266113281250000    0.7500000000000000    0.8236999511718750 Ca
   0.4733886718750000    0.2500000000000000    0.3236999511718750 Ca
   0.2662353515625000    0.2500000000000000    0.6165771484375000 As
   0.2337646484375000    0.7500000000000000    0.1165771484375000 As
   0.7337646484375000    0.7500000000000000    0.3834228515625000 As
   0.7662353515625000    0.2500000000000000    0.8834228515625000 As
