Eu1 Cu2 Sn1
1.0
   4.8492503062555130    0.0000000000000000   -0.0003170469181142
  -2.4243500491245618    4.1997327738832295   -0.0003170469181142
   0.0000000000000000    0.0000000000000000    3.9715492725372314
Eu Sn Cu
1 1 2
direct
   0.0000000000000000    0.0000000000000000    0.0000000000000000 Eu
   0.0000000000000000    0.0000000000000000    0.5000000000000000 Sn
   0.6666666865348816    0.3333333432674408    0.5000000000000000 Cu
   0.3333333134651184    0.6666666269302368    0.5000000000000000 Cu
