Zr6 Cr6 Si36 Ir3 Os3
1.0
   4.2728524116744673    0.0000000000000000   -0.0002793616751296
  -2.1361838016037389    3.7005386766953419   -0.0002793616751296
   0.0000000000000000    0.0000000000000000   74.5543518066406250
Ir Os Si Cr Zr
3 3 36 6 6
direct
   0.0000000000000000    0.0000000000000000    0.0000000000000000 Ir
   0.6666666865348816    0.3333333432674408    0.3333333432674408 Ir
   0.3333333432674408    0.6666666865348816    0.6666666865348816 Ir
   0.3333333432674408    0.6666666865348816    0.1666666716337204 Os
   0.6666666865348816    0.3333333432674408    0.8333333134651184 Os
   0.0000000000000000    0.0000000000000000    0.5000000000000000 Os
   0.6666666865348816    0.3333333432674408    0.0146064758300781 Si
   0.3333333432674408    0.6666666865348816    0.9853935241699219 Si
   0.3333333730697632    0.6666666865348816    0.3479398190975189 Si
   0.0000000000000000    0.0000000000000000    0.3187268674373627 Si
   0.0000000000000000    0.0000000000000000    0.6812731623649597 Si
   0.6666666865348816    0.3333333730697632    0.6520602107048035 Si
   0.6666666865348816    0.3333333432674408    0.4416503906250000 Si
   0.3333333432674408    0.6666666865348816    0.5583496093750000 Si
   0.3333333730697632    0.6666666865348816    0.7749837636947632 Si
   0.0000000000000000    0.0000000000000000    0.8916829824447632 Si
   0.0000000000000000    0.0000000000000000    0.1083171367645264 Si
   0.6666666865348816    0.3333333730697632    0.2250162959098816 Si
   0.0000000000000000    0.0000000000000000    0.7356872558593750 Si
   0.0000000000000000    0.0000000000000000    0.2643127441406250 Si
   0.6666666865348816    0.3333333432674408    0.0690206289291382 Si
   0.6666666865348816    0.3333333432674408    0.5976461172103882 Si
   0.3333333432674408    0.6666666865348816    0.4023540019989014 Si
   0.3333333432674408    0.6666666865348816    0.9309794306755066 Si
   0.3333333432674408    0.6666666865348816    0.8490600585937500 Si
   0.6666666865348816    0.3333333432674408    0.1509399414062500 Si
   0.0000000000000000    0.0000000000000000    0.1823934316635132 Si
   0.3333333730697632    0.6666666865348816    0.4842733144760132 Si
   0.6666666865348816    0.3333333730697632    0.5157268047332764 Si
   0.0000000000000000    0.0000000000000000    0.8176066279411316 Si
   0.6666666865348816    0.3333333432674408    0.7944335937500000 Si
   0.3333333432674408    0.6666666865348816    0.2055664062500000 Si
   0.3333333730697632    0.6666666865348816    0.1277669668197632 Si
   0.0000000000000000    0.0000000000000000    0.5388997793197632 Si
   0.0000000000000000    0.0000000000000000    0.4611003398895264 Si
   0.6666666865348816    0.3333333730697632    0.8722330927848816 Si
   0.3333333432674408    0.6666666865348816    0.7263488769531250 Si
   0.6666666865348816    0.3333333432674408    0.2736511230468750 Si
   0.0000000000000000    0.0000000000000000    0.0596822500228882 Si
   0.3333333730697632    0.6666666865348816    0.6069844961166382 Si
   0.6666666865348816    0.3333333730697632    0.3930156230926514 Si
   0.0000000000000000    0.0000000000000000    0.9403178095817566 Si
   0.6666666865348816    0.3333333432674408    0.1941528320312500 Cr
   0.3333333432674408    0.6666666865348816    0.8058471679687500 Cr
   0.3333333730697632    0.6666666865348816    0.5274862051010132 Cr
   0.0000000000000000    0.0000000000000000    0.1391805112361908 Cr
   0.0000000000000000    0.0000000000000000    0.8608195185661316 Cr
   0.6666666865348816    0.3333333730697632    0.4725138545036316 Cr
   0.0000000000000000    0.0000000000000000    0.6301269531250000 Zr
   0.0000000000000000    0.0000000000000000    0.3698730468750000 Zr
   0.6666666865348816    0.3333333432674408    0.9634603261947632 Zr
   0.6666666865348816    0.3333333432674408    0.7032064199447632 Zr
   0.3333333432674408    0.6666666865348816    0.2967936992645264 Zr
   0.3333333432674408    0.6666666865348816    0.0365397334098816 Zr
