U4 Al6 Fe2
1.0
   5.3601531867858689    0.0000000000000000   -0.0003504500574652
  -2.6797725052336738    4.6422043800337303   -0.0003504500574652
   0.0000000000000000    0.0000000000000000    9.0019483566284180
Fe U Al
2 4 6
direct
   0.0000000000000000    0.0000000000000000    0.0000000000000000 Fe
   0.0000000000000000    0.0000000000000000    0.5000000000000000 Fe
   0.6666666865348816    0.3333333432674408    0.0552368164062500 U
   0.3333333134651184    0.6666666269302368    0.5552368164062500 U
   0.3333333432674408    0.6666666865348816    0.9447631835937500 U
   0.6666666269302368    0.3333333134651184    0.4447631835937500 U
   0.1651611328125000    0.3303222656250000    0.2500000000000000 Al
   0.6696777343750000    0.8348388671875000    0.2500000000000000 Al
   0.1651611328125000    0.8348388671875000    0.2500000000000000 Al
   0.8348388671875000    0.6696777343750000    0.7500000000000000 Al
   0.3303222656250000    0.1651611328125000    0.7500000000000000 Al
   0.8348388671875000    0.1651611328125000    0.7500000000000000 Al
