In2 P4 S10
1.0
   6.7534626411971290    0.0000000000000000   -0.6843549035587536
  -0.0005071622973007    7.0107459688688767   -0.0004583668131257
   0.0000000000000000    0.0000000000000000    9.2377490997314453
P S In
4 10 2
direct
   0.7600708007812500    0.0158691406250000    0.7289733886718750 P
   0.2399291992187500    0.5158691406250000    0.2710266113281250 P
   0.1270751953125000    0.4542236328125000    0.9606933593750000 P
   0.8729248046875000    0.9542236328125000    0.0393066406250000 P
   0.0091857910156250    0.9055557250976562    0.6448249816894531 S
   0.9908142089843750    0.4055557250976562    0.3551750183105469 S
   0.4683837890625000    0.6145324707031250    0.4213256835937500 S
   0.5316162109375000    0.1145324707031250    0.5786743164062500 S
   0.6558837890625000    0.8196105957031250    0.8799438476562500 S
   0.3441162109375000    0.3196105957031250    0.1200561523437500 S
   0.7518920898437500    0.9777832031250000    0.2397003173828125 S
   0.2481079101562500    0.4777832031250000    0.7602996826171875 S
   0.8944854736328125    0.2316284179687500    0.9350891113281250 S
   0.1055145263671875    0.7316284179687500    0.0649108886718750 S
   0.6239013671875000    0.4552001953125000    0.7114562988281250 In
   0.3760986328125000    0.9552001953125000    0.2885437011718750 In
