U12 Sn16 Au12
1.0
  10.0892495893370064    0.0000000000000000   -0.0006596412406795
  -0.0006596843698329   10.0892495677703149   -0.0006596412406795
   0.0000000000000000    0.0000000000000000   10.0892496109008789
Au U Sn
12 12 16
direct
   0.2500000000000000    0.3750000000000000    0.0000000000000000 Au
   0.2500000000000000    0.6250000000000000    0.5000000000000000 Au
   0.7500000000000000    0.8750000000000000    0.5000000000000000 Au
   0.7500000000000000    0.1250000000000000    0.0000000000000000 Au
   0.0000000000000000    0.2500000000000000    0.3750000000000000 Au
   0.5000000000000000    0.2500000000000000    0.6250000000000000 Au
   0.5000000000000000    0.7500000000000000    0.8750000000000000 Au
   0.0000000000000000    0.7500000000000000    0.1250000000000000 Au
   0.3750000000000000    0.0000000000000000    0.2500000000000000 Au
   0.6250000000000000    0.5000000000000000    0.2500000000000000 Au
   0.8750000000000000    0.5000000000000000    0.7500000000000000 Au
   0.1250000000000000    0.0000000000000000    0.7500000000000000 Au
   0.5000000000000000    0.2500000000000000    0.1250000000000000 U
   0.0000000000000000    0.7500000000000000    0.6250000000000000 U
   0.5000000000000000    0.7500000000000000    0.3750000000000000 U
   0.0000000000000000    0.2500000000000000    0.8750000000000000 U
   0.1250000000000000    0.5000000000000000    0.2500000000000000 U
   0.6250000000000000    0.0000000000000000    0.7500000000000000 U
   0.3750000000000000    0.5000000000000000    0.7500000000000000 U
   0.8750000000000000    0.0000000000000000    0.2500000000000000 U
   0.2500000000000000    0.1250000000000000    0.5000000000000000 U
   0.7500000000000000    0.6250000000000000    0.0000000000000000 U
   0.7500000000000000    0.3750000000000000    0.5000000000000000 U
   0.2500000000000000    0.8750000000000000    0.0000000000000000 U
   0.9126281738281250    0.9126281738281250    0.9126281738281250 Sn
   0.5873718261718750    0.0873718261718750    0.4126281738281250 Sn
   0.0873718261718750    0.4126281738281250    0.5873718261718750 Sn
   0.4126281738281250    0.5873718261718750    0.0873718261718750 Sn
   0.1626281738281250    0.1626281738281250    0.1626281738281250 Sn
   0.3373718261718750    0.8373718261718750    0.6626281738281250 Sn
   0.6626281738281250    0.3373718261718750    0.8373718261718750 Sn
   0.8373718261718750    0.6626281738281250    0.3373718261718750 Sn
   0.4126281738281250    0.4126281738281250    0.4126281738281250 Sn
   0.0873718261718750    0.5873718261718750    0.9126281738281250 Sn
   0.5873718261718750    0.9126281738281250    0.0873718261718750 Sn
   0.9126281738281250    0.0873718261718750    0.5873718261718750 Sn
   0.6626281738281250    0.6626281738281250    0.6626281738281250 Sn
   0.8373718261718750    0.3373718261718750    0.1626281738281250 Sn
   0.1626281738281250    0.8373718261718750    0.3373718261718750 Sn
   0.3373718261718750    0.1626281738281250    0.8373718261718750 Sn
