Ni4 Sb4 Rh4
1.0
   6.2902512415911724    0.0000000000000000   -0.0004112604308624
  -0.0002579664012628    3.9453525374552898   -0.0002579495358147
   0.0000000000000000    0.0000000000000000    7.1548466682434082
Ni Rh Sb
4 4 4
direct
   0.1235961914062500    0.2500000000000000    0.0623779296875000 Ni
   0.3764038085937500    0.7500000000000000    0.5623779296875000 Ni
   0.8764038085937500    0.7500000000000000    0.9376220703125000 Ni
   0.6235961914062500    0.2500000000000000    0.4376220703125000 Ni
   0.0207824707031250    0.2500000000000000    0.6865844726562500 Rh
   0.4792175292968750    0.7500000000000000    0.1865844726562500 Rh
   0.9792175292968750    0.7500000000000000    0.3134155273437500 Rh
   0.5207824707031250    0.2500000000000000    0.8134155273437500 Rh
   0.7415161132812500    0.2500000000000000    0.1183471679687500 Sb
   0.7584838867187500    0.7500000000000000    0.6183471679687500 Sb
   0.2584838867187500    0.7500000000000000    0.8816528320312500 Sb
   0.2415161132812500    0.2500000000000000    0.3816528320312500 Sb
