Yb8 Eu8
1.0
   8.2552490057934591    0.0000000000000000   -0.0005397331732238
  -0.0005397684624589    8.2552489881471107   -0.0005397331732238
   0.0000000000000000    0.0000000000000000    8.2552490234375000
Eu Yb
8 8
direct
   0.0000000000000000    0.0000000000000000    0.0000000000000000 Eu
   0.0000000000000000    0.5000000000000000    0.5000000000000000 Eu
   0.5000000000000000    0.0000000000000000    0.5000000000000000 Eu
   0.5000000000000000    0.5000000000000000    0.0000000000000000 Eu
   0.5000000000000000    0.0000000000000000    0.0000000000000000 Eu
   0.0000000000000000    0.5000000000000000    0.0000000000000000 Eu
   0.0000000000000000    0.0000000000000000    0.5000000000000000 Eu
   0.5000000000000000    0.5000000000000000    0.5000000000000000 Eu
   0.2500000000000000    0.2500000000000000    0.2500000000000000 Yb
   0.7500000000000000    0.7500000000000000    0.2500000000000000 Yb
   0.7500000000000000    0.2500000000000000    0.7500000000000000 Yb
   0.2500000000000000    0.7500000000000000    0.7500000000000000 Yb
   0.2500000000000000    0.2500000000000000    0.7500000000000000 Yb
   0.7500000000000000    0.7500000000000000    0.7500000000000000 Yb
   0.2500000000000000    0.7500000000000000    0.2500000000000000 Yb
   0.7500000000000000    0.2500000000000000    0.2500000000000000 Yb
