Cd8 Hg48 Br16
1.0
  11.2944459673763618    0.0000000000000000   -0.0007384377088443
  -0.0007384859899268   11.2944459432334536   -0.0007384377088443
   0.0000000000000000    0.0000000000000000   11.2944459915161133
Cd Br Hg
8 16 48
direct
   0.8750000000000000    0.8750000000000000    0.8750000000000000 Cd
   0.8750000000000000    0.3750000000000000    0.3750000000000000 Cd
   0.3750000000000000    0.3750000000000000    0.8750000000000000 Cd
   0.3750000000000000    0.8750000000000000    0.3750000000000000 Cd
   0.6250000000000000    0.1250000000000000    0.6250000000000000 Cd
   0.1250000000000000    0.1250000000000000    0.1250000000000000 Cd
   0.1250000000000000    0.6250000000000000    0.6250000000000000 Cd
   0.6250000000000000    0.6250000000000000    0.1250000000000000 Cd
   0.2500000000000000    0.0000000000000000    0.7500000000000000 Br
   0.5000000000000000    0.2500000000000000    0.2500000000000000 Br
   0.0000000000000000    0.5000000000000000    0.0000000000000000 Br
   0.7500000000000000    0.7500000000000000    0.5000000000000000 Br
   0.7500000000000000    0.2500000000000000    0.0000000000000000 Br
   0.2500000000000000    0.5000000000000000    0.2500000000000000 Br
   0.0000000000000000    0.0000000000000000    0.5000000000000000 Br
   0.5000000000000000    0.7500000000000000    0.7500000000000000 Br
   0.0000000000000000    0.7500000000000000    0.2500000000000000 Br
   0.2500000000000000    0.2500000000000000    0.5000000000000000 Br
   0.5000000000000000    0.0000000000000000    0.0000000000000000 Br
   0.7500000000000000    0.5000000000000000    0.7500000000000000 Br
   0.7500000000000000    0.0000000000000000    0.2500000000000000 Br
   0.2500000000000000    0.7500000000000000    0.0000000000000000 Br
   0.0000000000000000    0.2500000000000000    0.7500000000000000 Br
   0.5000000000000000    0.5000000000000000    0.5000000000000000 Br
   0.6564636230468750    0.8750000000000000    0.8750000000000000 Hg
   0.0935363769531250    0.3750000000000000    0.3750000000000000 Hg
   0.5935363769531250    0.3750000000000000    0.8750000000000000 Hg
   0.1564636230468750    0.8750000000000000    0.3750000000000000 Hg
   0.8750000000000000    0.6564636230468750    0.8750000000000000 Hg
   0.3750000000000000    0.0935363769531250    0.3750000000000000 Hg
   0.8750000000000000    0.5935363769531250    0.3750000000000000 Hg
   0.3750000000000000    0.1564636230468750    0.8750000000000000 Hg
   0.8750000000000000    0.8750000000000000    0.6564636230468750 Hg
   0.3750000000000000    0.3750000000000000    0.0935363769531250 Hg
   0.3750000000000000    0.8750000000000000    0.5935363769531250 Hg
   0.8750000000000000    0.3750000000000000    0.1564636230468750 Hg
   0.6250000000000000    0.9064636230468750    0.6250000000000000 Hg
   0.1250000000000000    0.3435363769531250    0.1250000000000000 Hg
   0.1250000000000000    0.8435363769531250    0.6250000000000000 Hg
   0.6250000000000000    0.4064636230468750    0.1250000000000000 Hg
   0.4064636230468750    0.1250000000000000    0.6250000000000000 Hg
   0.8435363769531250    0.6250000000000000    0.1250000000000000 Hg
   0.3435363769531250    0.1250000000000000    0.1250000000000000 Hg
   0.9064636230468750    0.6250000000000000    0.6250000000000000 Hg
   0.6250000000000000    0.1250000000000000    0.8435363769531250 Hg
   0.1250000000000000    0.6250000000000000    0.4064636230468750 Hg
   0.6250000000000000    0.6250000000000000    0.9064636230468750 Hg
   0.1250000000000000    0.1250000000000000    0.3435363769531250 Hg
   0.4064636230468750    0.6250000000000000    0.1250000000000000 Hg
   0.8435363769531250    0.1250000000000000    0.6250000000000000 Hg
   0.1250000000000000    0.4064636230468750    0.6250000000000000 Hg
   0.6250000000000000    0.8435363769531250    0.1250000000000000 Hg
   0.6250000000000000    0.1250000000000000    0.4064636230468750 Hg
   0.1250000000000000    0.6250000000000000    0.8435363769531250 Hg
   0.8750000000000000    0.1564636230468750    0.3750000000000000 Hg
   0.3750000000000000    0.5935363769531250    0.8750000000000000 Hg
   0.5935363769531250    0.8750000000000000    0.3750000000000000 Hg
   0.1564636230468750    0.3750000000000000    0.8750000000000000 Hg
   0.3750000000000000    0.8750000000000000    0.1564636230468750 Hg
   0.8750000000000000    0.3750000000000000    0.5935363769531250 Hg
   0.6564636230468750    0.3750000000000000    0.3750000000000000 Hg
   0.0935363769531250    0.8750000000000000    0.8750000000000000 Hg
   0.8750000000000000    0.0935363769531250    0.8750000000000000 Hg
   0.3750000000000000    0.6564636230468750    0.3750000000000000 Hg
   0.3435363769531250    0.6250000000000000    0.6250000000000000 Hg
   0.9064636230468750    0.1250000000000000    0.1250000000000000 Hg
   0.6250000000000000    0.6250000000000000    0.3435363769531250 Hg
   0.1250000000000000    0.1250000000000000    0.9064636230468750 Hg
   0.1250000000000000    0.9064636230468750    0.1250000000000000 Hg
   0.6250000000000000    0.3435363769531250    0.6250000000000000 Hg
   0.3750000000000000    0.3750000000000000    0.6564636230468750 Hg
   0.8750000000000000    0.8750000000000000    0.0935363769531250 Hg
