Cr8 Pb8 S16
1.0
   7.1155476418047954    0.0000000000000000   -0.0004652188086927
  -0.0004832365278999    7.3906464260778231   -0.0004832049346361
   0.0000000000000000    0.0000000000000000   10.1285476684570312
Cr S Pb
8 16 8
direct
   0.0000000000000000    0.0000000000000000    0.0000000000000000 Cr
   0.0000000000000000    0.5000000000000000    0.0000000000000000 Cr
   0.5000000000000000    0.5000000000000000    0.5000000000000000 Cr
   0.5000000000000000    0.0000000000000000    0.5000000000000000 Cr
   0.2500000000000000    0.2500000000000000    0.2500000000000000 Cr
   0.7500000000000000    0.2500000000000000    0.2500000000000000 Cr
   0.7500000000000000    0.7500000000000000    0.7500000000000000 Cr
   0.2500000000000000    0.7500000000000000    0.7500000000000000 Cr
   0.0000000000000000    0.9775390625000000    0.7681579589843750 S
   0.0000000000000000    0.5224609375000000    0.7681579589843750 S
   0.0000000000000000    0.4775390625000000    0.2318420410156250 S
   0.0000000000000000    0.0224609375000000    0.2318420410156250 S
   0.5000000000000000    0.4775390625000000    0.2681579589843750 S
   0.5000000000000000    0.0224609375000000    0.2681579589843750 S
   0.5000000000000000    0.9775390625000000    0.7318420410156250 S
   0.5000000000000000    0.5224609375000000    0.7318420410156250 S
   0.7185058593750000    0.2500000000000000    0.4580688476562500 S
   0.2814941406250000    0.2500000000000000    0.4580688476562500 S
   0.2814941406250000    0.7500000000000000    0.5419311523437500 S
   0.7185058593750000    0.7500000000000000    0.5419311523437500 S
   0.2185058593750000    0.7500000000000000    0.9580688476562500 S
   0.7814941406250000    0.7500000000000000    0.9580688476562500 S
   0.7814941406250000    0.2500000000000000    0.0419311523437500 S
   0.2185058593750000    0.2500000000000000    0.0419311523437500 S
   0.3251953125000000    0.2500000000000000    0.8618164062500000 Pb
   0.6748046875000000    0.2500000000000000    0.8618164062500000 Pb
   0.6748046875000000    0.7500000000000000    0.1381835937500000 Pb
   0.3251953125000000    0.7500000000000000    0.1381835937500000 Pb
   0.8251953125000000    0.7500000000000000    0.3618164062500000 Pb
   0.1748046875000000    0.7500000000000000    0.3618164062500000 Pb
   0.1748046875000000    0.2500000000000000    0.6381835937500000 Pb
   0.8251953125000000    0.2500000000000000    0.6381835937500000 Pb
