Nb4 Co6 Ge2
1.0
   4.7444524663610910    0.0000000000000000   -0.0003101951719544
  -2.3719570744891949    4.1089717500051641   -0.0003101951719544
   0.0000000000000000    0.0000000000000000    7.3382496833801270
Ge Nb Co
2 4 6
direct
   0.0000000000000000    0.0000000000000000    0.0000000000000000 Ge
   0.0000000000000000    0.0000000000000000    0.5000000000000000 Ge
   0.3333333432674408    0.6666666865348816    0.0667419433593750 Nb
   0.6666666269302368    0.3333333134651184    0.5667419433593750 Nb
   0.6666666865348816    0.3333333432674408    0.9332580566406250 Nb
   0.3333333134651184    0.6666666269302368    0.4332580566406250 Nb
   0.8266601562500000    0.6533203125000000    0.2500000000000000 Co
   0.3466796875000000    0.1733398437500000    0.2500000000000000 Co
   0.8266601562500000    0.1733398437500000    0.2500000000000000 Co
   0.1733398437500000    0.3466796875000000    0.7500000000000000 Co
   0.6533203125000000    0.8266601562500000    0.7500000000000000 Co
   0.1733398437500000    0.8266601562500000    0.7500000000000000 Co
