U2 Sb2 Te2
1.0
   4.1287517459363121    0.0000000000000000   -0.0002699402864437
  -0.0002699579358799    4.1287517371107283   -0.0002699402864437
   0.0000000000000000    0.0000000000000000    9.6176490783691406
Sb Te U
2 2 2
direct
   0.7500000000000000    0.2500000000000000    0.0000000000000000 Sb
   0.2500000000000000    0.7500000000000000    0.0000000000000000 Sb
   0.7500000000000000    0.7500000000000000    0.3794555664062500 Te
   0.2500000000000000    0.2500000000000000    0.6205444335937500 Te
   0.2500000000000000    0.2500000000000000    0.2783203125000000 U
   0.7500000000000000    0.7500000000000000    0.7216796875000000 U
