Ga26 Ni6 Pd2
1.0
   4.2073492913921040    0.0000000000000000   -0.0002750790415056
  -0.0002750970269278    4.2073492823985115   -0.0002750790415056
   0.0000000000000000    0.0000000000000000   32.4247474670410156
Ni Ga Pd Ni Ga
2 10 2 4 16
direct
   0.5000000000000000    0.5000000000000000    0.0582275390625000 Ni
   0.0000000000000000    0.0000000000000000    0.5582275390625000 Ni
   0.0000000000000000    0.0000000000000000    0.9332885742187500 Ga
   0.5000000000000000    0.5000000000000000    0.4332885742187500 Ga
   0.0000000000000000    0.0000000000000000    0.1638793945312500 Ga
   0.5000000000000000    0.5000000000000000    0.6638793945312500 Ga
   0.5000000000000000    0.5000000000000000    0.3182373046875000 Ga
   0.0000000000000000    0.0000000000000000    0.8182373046875000 Ga
   0.0000000000000000    0.0000000000000000    0.3146972656250000 Ga
   0.5000000000000000    0.5000000000000000    0.8146972656250000 Ga
   0.5000000000000000    0.5000000000000000    0.9435729980468750 Ga
   0.0000000000000000    0.0000000000000000    0.4435729980468750 Ga
   0.5000000000000000    0.5000000000000000    0.5558319091796875 Pd
   0.0000000000000000    0.0000000000000000    0.0558319091796875 Pd
   0.0000000000000000    0.5000000000000000    0.1910018920898438 Ni
   0.5000000000000000    0.0000000000000000    0.1910018920898438 Ni
   0.5000000000000000    0.0000000000000000    0.6910018920898438 Ni
   0.0000000000000000    0.5000000000000000    0.6910018920898438 Ni
   0.0000000000000000    0.5000000000000000    0.1032257080078125 Ga
   0.5000000000000000    0.0000000000000000    0.1032257080078125 Ga
   0.5000000000000000    0.0000000000000000    0.6032257080078125 Ga
   0.0000000000000000    0.5000000000000000    0.6032257080078125 Ga
   0.0000000000000000    0.5000000000000000    0.8771057128906250 Ga
   0.5000000000000000    0.0000000000000000    0.8771057128906250 Ga
   0.5000000000000000    0.0000000000000000    0.3771057128906250 Ga
   0.0000000000000000    0.5000000000000000    0.3771057128906250 Ga
   0.0000000000000000    0.5000000000000000    0.4957885742187500 Ga
   0.5000000000000000    0.0000000000000000    0.4957885742187500 Ga
   0.5000000000000000    0.0000000000000000    0.9957885742187500 Ga
   0.0000000000000000    0.5000000000000000    0.9957885742187500 Ga
   0.0000000000000000    0.5000000000000000    0.7665405273437500 Ga
   0.5000000000000000    0.0000000000000000    0.7665405273437500 Ga
   0.5000000000000000    0.0000000000000000    0.2665405273437500 Ga
   0.0000000000000000    0.5000000000000000    0.2665405273437500 Ga
