Na4 Al4 Si2 C2 N4
1.0
   5.7902456788969836    0.0000000000000000   -1.1183012733612345
  -1.0109864321184068    6.2952918863930263   -0.4938212516834188
   0.0000000000000000    0.0000000000000000    6.3950490951538086
N C N Na Al Si
2 2 2 4 4 2
direct
   0.0000000000000000    0.0000000000000000    0.0000000000000000 N
   0.0000000000000000    0.5000000000000000    0.5000000000000000 N
   0.2380905151367188    0.0180780887603760    0.5354003906250000 C
   0.7619094848632812    0.9819219112396240    0.4645996093750000 C
   0.6089172363281250    0.2137432098388672    0.9568481445312500 N
   0.3910827636718750    0.7862567901611328    0.0431518554687500 N
   0.7904968261718750    0.6144409179687500    0.0422363281250000 Na
   0.2095031738281250    0.3855590820312500    0.9577636718750000 Na
   0.4008789062500000    0.6682434082031250    0.4014129638671875 Na
   0.5991210937500000    0.3317565917968750    0.5985870361328125 Na
   0.0083618164062500    0.2141113281250000    0.4741821289062500 Al
   0.9916381835937500    0.7858886718750000    0.5258178710937500 Al
   0.7491149902343750    0.9904479980468750    0.7854309082031250 Al
   0.2508850097656250    0.0095520019531250    0.2145690917968750 Al
   0.6554260253906250    0.0060653686523438    0.1620178222656250 Si
   0.3445739746093750    0.9939346313476562    0.8379821777343750 Si
