Eu4 Cr4 S16
1.0
   7.3513479075666863    0.0000000000000000   -0.0004806355726930
  -0.0002930843288534    4.4824480818816710   -0.0002930651674491
   0.0000000000000000    0.0000000000000000   16.4820518493652344
S Cr Eu
16 4 4
direct
   0.3575439453125000    0.2500000000000000    0.4160156250000000 S
   0.1424560546875000    0.7500000000000000    0.9160156250000000 S
   0.6424560546875000    0.7500000000000000    0.5839843750000000 S
   0.8575439453125000    0.2500000000000000    0.0839843750000000 S
   0.3334960937500000    0.2500000000000000    0.6803588867187500 S
   0.1665039062500000    0.7500000000000000    0.1803588867187500 S
   0.6665039062500000    0.7500000000000000    0.3196411132812500 S
   0.8334960937500000    0.2500000000000000    0.8196411132812500 S
   0.9208984375000000    0.2500000000000000    0.2730712890625000 S
   0.5791015625000000    0.7500000000000000    0.7730712890625000 S
   0.0791015625000000    0.7500000000000000    0.7269287109375000 S
   0.4208984375000000    0.2500000000000000    0.2269287109375000 S
   0.3634948730468750    0.2500000000000000    0.0512084960937500 S
   0.1365051269531250    0.7500000000000000    0.5512084960937500 S
   0.6365051269531250    0.7500000000000000    0.9487915039062500 S
   0.8634948730468750    0.2500000000000000    0.4487915039062500 S
   0.1379623413085938    0.2500000000000000    0.1554641723632812 Cr
   0.3620376586914062    0.7500000000000000    0.6554641723632812 Cr
   0.8620376586914062    0.7500000000000000    0.8445358276367188 Cr
   0.6379623413085938    0.2500000000000000    0.3445358276367188 Cr
   0.9038085937500000    0.2500000000000000    0.6332092285156250 Eu
   0.5961914062500000    0.7500000000000000    0.1332092285156250 Eu
   0.0961914062500000    0.7500000000000000    0.3667907714843750 Eu
   0.4038085937500000    0.2500000000000000    0.8667907714843750 Eu
