Li6 Ti8 O16
1.0
   8.1910113071872956    0.0000000000000000   -6.0243271360119879
  -0.0007943646285590    6.1461510013560012   -0.0004018390733524
   0.0000000000000000    0.0000000000000000    6.0675497055053711
Ti Li Ti Li Ti O
2 2 2 4 4 16
direct
   0.0000000000000000    0.0000000000000000    0.0000000000000000 Ti
   0.5000000000000000    0.5000000000000000    0.0000000000000000 Ti
   0.5000000000000000    0.0000000000000000    0.0000000000000000 Li
   0.0000000000000000    0.5000000000000000    0.0000000000000000 Li
   0.0000000000000000    0.0000000000000000    0.5000000000000000 Ti
   0.5000000000000000    0.5000000000000000    0.5000000000000000 Ti
   0.2500000000000000    0.2500000000000000    0.0000000000000000 Li
   0.7500000000000000    0.2500000000000000    0.0000000000000000 Li
   0.7500000000000000    0.7500000000000000    0.0000000000000000 Li
   0.2500000000000000    0.7500000000000000    0.0000000000000000 Li
   0.2500000000000000    0.2500000000000000    0.5000000000000000 Ti
   0.7500000000000000    0.2500000000000000    0.5000000000000000 Ti
   0.7500000000000000    0.7500000000000000    0.5000000000000000 Ti
   0.2500000000000000    0.7500000000000000    0.5000000000000000 Ti
   0.2408447265625000    0.0000000000000000    0.7291259765625000 O
   0.7591552734375000    0.0000000000000000    0.2708740234375000 O
   0.7408447265625000    0.5000000000000000    0.7291259765625000 O
   0.2591552734375000    0.5000000000000000    0.2708740234375000 O
   0.2357101440429688    0.0000000000000000    0.2532348632812500 O
   0.7642898559570312    0.0000000000000000    0.7467651367187500 O
   0.7357101440429688    0.5000000000000000    0.2532348632812500 O
   0.2642898559570312    0.5000000000000000    0.7467651367187500 O
   0.0030517578125000    0.7830810546875000    0.2528076171875000 O
   0.9969482421875000    0.7830810546875000    0.7471923828125000 O
   0.9969482421875000    0.2169189453125000    0.7471923828125000 O
   0.0030517578125000    0.2169189453125000    0.2528076171875000 O
   0.5030517578125000    0.2830810546875000    0.2528076171875000 O
   0.4969482421875000    0.2830810546875000    0.7471923828125000 O
   0.4969482421875000    0.7169189453125000    0.7471923828125000 O
   0.5030517578125000    0.7169189453125000    0.2528076171875000 O
