Li2 Mg8
1.0
   5.4780492665509781    0.0000000000000000   -0.0003581581744702
  -0.0003316289926647    5.0719523213049564   -0.0003316073112693
   0.0000000000000000    0.0000000000000000    7.6133522987365723
Li Mg
2 8
direct
   0.5000000000000000    0.0000000000000000    0.5156250000000000 Li
   0.0000000000000000    0.5000000000000000    0.0156250000000000 Li
   0.2460937500000000    0.0000000000000000    0.2050781250000000 Mg
   0.7539062500000000    0.0000000000000000    0.2050781250000000 Mg
   0.7460937500000000    0.5000000000000000    0.7050781250000000 Mg
   0.2539062500000000    0.5000000000000000    0.7050781250000000 Mg
   0.2480468750000000    0.0000000000000000    0.8444824218750000 Mg
   0.7519531250000000    0.0000000000000000    0.8444824218750000 Mg
   0.7480468750000000    0.5000000000000000    0.3444824218750000 Mg
   0.2519531250000000    0.5000000000000000    0.3444824218750000 Mg
