P3 H7 O10
1.0
   4.5872469162794900    0.0000000000000000    0.0051040881850146
   0.0852704453917650    5.1788460081341290    1.4297251458440554
   0.0000000000000000    0.0000000000000000    8.8185491561889648
H O P
7 10 3
direct
   0.1665039062500000    0.4199218750000000    0.9316406250000000 H
   0.2646484375000000    0.0428771972656250    0.7377319335937500 H
   0.5458984375000000    0.3558349609375000    0.7425537109375000 H
   0.5122070312500000    0.8906250000000000    0.4873046875000000 H
   0.3007812500000000    0.0566406250000000    0.7523193359375000 H
   0.4804687500000000    0.8107910156250000    0.0379638671875000 H
   0.6103515625000000    0.6152343750000000    0.2130126953125000 H
   0.6613769531250000    0.3961791992187500    0.4387207031250000 O
   0.7216796875000000    0.9515228271484375    0.5170898437500000 O
   0.6364746093750000    0.5943832397460938    0.8156738281250000 O
   0.1706542968750000    0.2229919433593750    0.5947265625000000 O
   0.2497558593750000    0.6841735839843750    0.4478759765625000 O
   0.6933593750000000    0.6582031250000000    0.0866699218750000 O
   0.0415039062500000    0.3297119140625000    0.9910888671875000 O
   0.2182617187500000    0.3748779296875000    0.2701416015625000 O
   0.7038574218750000    0.1694335937500000    0.7338867187500000 O
   0.1362304687500000    0.7954101562500000    0.9394531250000000 O
   0.8676757812500000    0.5981445312500000    0.9377441406250000 P
   0.7978515625000000    0.1589355468750000    0.5659179687500000 P
   0.2958984375000000    0.4165039062500000    0.4165039062500000 P
