La4 Ce4 Br8 N8
1.0
  16.5112111562133741    0.0000000000000000   -6.8708407755936349
  -0.0004303921392507    4.3907484703455202   -0.0002870697921346
   0.0000000000000000    0.0000000000000000    9.5652484893798828
N Br La Ce
8 8 4 4
direct
   0.1916503906250000    0.0000000000000000    0.0002136230468750 N
   0.8083496093750000    0.0000000000000000    0.9997863769531250 N
   0.6916503906250000    0.5000000000000000    0.0002136230468750 N
   0.3083496093750000    0.5000000000000000    0.9997863769531250 N
   0.9865722656250000    0.0000000000000000    0.0683593750000000 N
   0.0134277343750000    0.0000000000000000    0.9316406250000000 N
   0.4865722656250000    0.5000000000000000    0.0683593750000000 N
   0.5134277343750000    0.5000000000000000    0.9316406250000000 N
   0.2200317382812500    0.0000000000000000    0.6736831665039062 Br
   0.7799682617187500    0.0000000000000000    0.3263168334960938 Br
   0.7200317382812500    0.5000000000000000    0.6736831665039062 Br
   0.2799682617187500    0.5000000000000000    0.3263168334960938 Br
   0.5264892578125000    0.0000000000000000    0.3171386718750000 Br
   0.4735107421875000    0.0000000000000000    0.6828613281250000 Br
   0.0264892578125000    0.5000000000000000    0.3171386718750000 Br
   0.9735107421875000    0.5000000000000000    0.6828613281250000 Br
   0.8771362304687500    0.0000000000000000    0.8270263671875000 La
   0.1228637695312500    0.0000000000000000    0.1729736328125000 La
   0.3771362304687500    0.5000000000000000    0.8270263671875000 La
   0.6228637695312500    0.5000000000000000    0.1729736328125000 La
   0.6711425781250000    0.0000000000000000    0.8872070312500000 Ce
   0.3288574218750000    0.0000000000000000    0.1127929687500000 Ce
   0.1711425781250000    0.5000000000000000    0.8872070312500000 Ce
   0.8288574218750000    0.5000000000000000    0.1127929687500000 Ce
