Ba4 Nd4 Cu4 Te12
1.0
   4.3776502515688893    0.0000000000000000   -0.0002862134212893
  -0.0010768205780628   16.4689540159005290   -0.0010767501771832
   0.0000000000000000    0.0000000000000000   11.2944459915161133
Nd Cu Te Ba Te
4 4 4 4 8
direct
   0.0000000000000000    0.0000000000000000    0.0000000000000000 Nd
   0.0000000000000000    0.0000000000000000    0.5000000000000000 Nd
   0.5000000000000000    0.5000000000000000    0.0000000000000000 Nd
   0.5000000000000000    0.5000000000000000    0.5000000000000000 Nd
   0.5000000000000000    0.0950164794921875    0.2500000000000000 Cu
   0.5000000000000000    0.9049835205078125    0.7500000000000000 Cu
   0.0000000000000000    0.5950164794921875    0.2500000000000000 Cu
   0.0000000000000000    0.4049835205078125    0.7500000000000000 Cu
   0.5000000000000000    0.9522285461425781    0.2500000000000000 Te
   0.5000000000000000    0.0477714538574219    0.7500000000000000 Te
   0.0000000000000000    0.4522285461425781    0.2500000000000000 Te
   0.0000000000000000    0.5477714538574219    0.7500000000000000 Te
   0.5000000000000000    0.2911376953125000    0.2500000000000000 Ba
   0.5000000000000000    0.7088623046875000    0.7500000000000000 Ba
   0.0000000000000000    0.7911376953125000    0.2500000000000000 Ba
   0.0000000000000000    0.2088623046875000    0.7500000000000000 Ba
   0.5000000000000000    0.1513671875000000    0.0322875976562500 Te
   0.5000000000000000    0.8486328125000000    0.5322875976562500 Te
   0.5000000000000000    0.1513671875000000    0.4677124023437500 Te
   0.5000000000000000    0.8486328125000000    0.9677124023437500 Te
   0.0000000000000000    0.6513671875000000    0.0322875976562500 Te
   0.0000000000000000    0.3486328125000000    0.5322875976562500 Te
   0.0000000000000000    0.6513671875000000    0.4677124023437500 Te
   0.0000000000000000    0.3486328125000000    0.9677124023437500 Te
