Sn4 Cl8
1.0
   6.3295502527376470    0.0000000000000000   -0.0004138298239814
  -0.0004147135575708    6.3426522937475927   -0.0004146864442338
   0.0000000000000000    0.0000000000000000   11.4647512435913086
Cl Sn
8 4
direct
   0.5050354003906250    0.2351989746093750    0.6490478515625000 Cl
   0.9949645996093750    0.7648010253906250    0.1490478515625000 Cl
   0.4949645996093750    0.7351989746093750    0.8509521484375000 Cl
   0.0050354003906250    0.2648010253906250    0.3509521484375000 Cl
   0.0344848632812500    0.2478027343750000    0.8618469238281250 Cl
   0.4655151367187500    0.7521972656250000    0.3618469238281250 Cl
   0.9655151367187500    0.7478027343750000    0.6381530761718750 Cl
   0.5344848632812500    0.2521972656250000    0.1381530761718750 Cl
   0.2452392578125000    0.5082397460937500    0.7314720153808594 Sn
   0.2547607421875000    0.4917602539062500    0.2314720153808594 Sn
   0.7547607421875000    0.0082397460937500    0.7685279846191406 Sn
   0.7452392578125000    0.9917602539062500    0.2685279846191406 Sn
