V8 Ni2 O20
1.0
   9.3532199149754227    0.0000000000000000   -3.8176925964672086
  -0.0008848436245655    9.0936478943630004   -0.0005945482024825
   0.0000000000000000    0.0000000000000000    5.3732514381408691
Ni O V
2 20 8
direct
   0.0000000000000000    0.1658325195312500    0.0000000000000000 Ni
   0.5000000000000000    0.6658325195312500    0.0000000000000000 Ni
   0.1107788085937500    0.0559082031250000    0.8690032958984375 O
   0.8892211914062500    0.0559082031250000    0.1309967041015625 O
   0.6107788085937500    0.5559082031250000    0.8690032958984375 O
   0.3892211914062500    0.5559082031250000    0.1309967041015625 O
   0.3600196838378906    0.7504272460937500    0.6965103149414062 O
   0.6399803161621094    0.7504272460937500    0.3034896850585938 O
   0.8600196838378906    0.2504272460937500    0.6965103149414062 O
   0.1399803161621094    0.2504272460937500    0.3034896850585938 O
   0.8333892822265625    0.5942306518554688    0.7558593750000000 O
   0.1666107177734375    0.5942306518554688    0.2441406250000000 O
   0.3333892822265625    0.0942306518554688    0.7558593750000000 O
   0.6666107177734375    0.0942306518554688    0.2441406250000000 O
   0.8543701171875000    0.8940429687500000    0.5409240722656250 O
   0.1456298828125000    0.8940429687500000    0.4590759277343750 O
   0.3543701171875000    0.3940429687500000    0.5409240722656250 O
   0.6456298828125000    0.3940429687500000    0.4590759277343750 O
   0.6801171302795410    0.8586425781250000    0.8685302734375000 O
   0.3198828697204590    0.8586425781250000    0.1314697265625000 O
   0.1801171302795410    0.3586425781250000    0.8685302734375000 O
   0.8198828697204590    0.3586425781250000    0.1314697265625000 O
   0.7529678344726562    0.2585449218750000    0.3440551757812500 V
   0.2470321655273438    0.2585449218750000    0.6559448242187500 V
   0.2529678344726562    0.7585449218750000    0.3440551757812500 V
   0.7470321655273438    0.7585449218750000    0.6559448242187500 V
   0.7421875000000000    0.4279785156250000    0.8041076660156250 V
   0.2578125000000000    0.4279785156250000    0.1958923339843750 V
   0.2421875000000000    0.9279785156250000    0.8041076660156250 V
   0.7578125000000000    0.9279785156250000    0.1958923339843750 V
