Tb1 Dy2 Ho1 Al2 Cu8 Ni1
1.0
   3.7226469437189578    0.0000000000000000   -0.0002433889088403
  -0.0006168572912344    9.4342498375991859   -0.0006168169620498
   0.0000000000000000    0.0000000000000000    6.9059519767761230
Ni Ho Tb Dy Al Cu
1 1 1 2 2 8
direct
   0.0000000000000000    0.5000000000000000    0.7521972656250000 Ni
   0.0000000000000000    0.5000000000000000    0.1053466796875000 Ho
   0.5000000000000000    0.0000000000000000    0.3109130859375000 Tb
   0.5000000000000000    0.0000000000000000    0.7841796875000000 Dy
   0.5000000000000000    0.5000000000000000    0.5185546875000000 Dy
   0.0000000000000000    0.7557983398437500    0.7506713867187500 Al
   0.0000000000000000    0.2442016601562500    0.7506713867187500 Al
   0.5000000000000000    0.3530426025390625    0.8787841796875000 Cu
   0.5000000000000000    0.6469573974609375    0.8787841796875000 Cu
   0.5000000000000000    0.7713165283203125    0.5468750000000000 Cu
   0.5000000000000000    0.2286834716796875    0.5468750000000000 Cu
   0.5000000000000000    0.1724853515625000    0.0489501953125000 Cu
   0.5000000000000000    0.8275146484375000    0.0489501953125000 Cu
   0.5000000000000000    0.3044433593750000    0.2451171875000000 Cu
   0.5000000000000000    0.6955566406250000    0.2451171875000000 Cu
