Mn12 Si4
1.0
   5.7269515868808130    0.0000000000000000   -0.0003744315587231
  -0.0003744560400853    5.7269515746389317   -0.0003744315587231
   0.0000000000000000    0.0000000000000000    5.7269515991210938
Si Mn
4 12
direct
   0.0000000000000000    0.0000000000000000    0.0000000000000000 Si
   0.0000000000000000    0.5000000000000000    0.5000000000000000 Si
   0.5000000000000000    0.0000000000000000    0.5000000000000000 Si
   0.5000000000000000    0.5000000000000000    0.0000000000000000 Si
   0.5000000000000000    0.0000000000000000    0.0000000000000000 Mn
   0.0000000000000000    0.5000000000000000    0.0000000000000000 Mn
   0.0000000000000000    0.0000000000000000    0.5000000000000000 Mn
   0.5000000000000000    0.5000000000000000    0.5000000000000000 Mn
   0.2500000000000000    0.2500000000000000    0.2500000000000000 Mn
   0.7500000000000000    0.7500000000000000    0.2500000000000000 Mn
   0.7500000000000000    0.2500000000000000    0.7500000000000000 Mn
   0.2500000000000000    0.7500000000000000    0.7500000000000000 Mn
   0.2500000000000000    0.2500000000000000    0.7500000000000000 Mn
   0.7500000000000000    0.7500000000000000    0.7500000000000000 Mn
   0.2500000000000000    0.7500000000000000    0.2500000000000000 Mn
   0.7500000000000000    0.2500000000000000    0.2500000000000000 Mn
