Gd3 Pb3 O6
1.0
   3.6702499311203756    0.0000000000000000   -0.0002399631604641
  -1.8349167477151582    3.1786498841243196   -0.0002399631604641
   0.0000000000000000    0.0000000000000000   18.8269462585449219
Pb Gd O
3 3 6
direct
   0.0000000000000000    0.0000000000000000    0.0000000000000000 Pb
   0.6666666865348816    0.3333333432674408    0.3333333432674408 Pb
   0.3333333432674408    0.6666666865348816    0.6666666865348816 Pb
   0.3333333432674408    0.6666666865348816    0.1666666716337204 Gd
   0.6666666865348816    0.3333333432674408    0.8333333134651184 Gd
   0.0000000000000000    0.0000000000000000    0.5000000000000000 Gd
   0.6666666865348816    0.3333333432674408    0.0996093750000000 O
   0.3333333432674408    0.6666666865348816    0.9003906250000000 O
   0.3333333730697632    0.6666666865348816    0.4329427182674408 O
   0.0000000000000000    0.0000000000000000    0.2337239682674408 O
   0.0000000000000000    0.0000000000000000    0.7662760615348816 O
   0.6666666865348816    0.3333333730697632    0.5670573115348816 O
