Na4 Sr4 Sn4 C4 O16
1.0
   6.9714474529037984    0.0000000000000000   -0.0004557974511827
  -0.0004566839287307    6.9845494925416309   -0.0004566540714352
   0.0000000000000000    0.0000000000000000    9.6700496673583984
Na Sn C O Sr O
4 4 4 8 4 8
direct
   0.0000000000000000    0.0000000000000000    0.0117187500000000 Na
   0.5000000000000000    0.0000000000000000    0.0117187500000000 Na
   0.5000000000000000    0.5000000000000000    0.5117187500000000 Na
   0.0000000000000000    0.5000000000000000    0.5117187500000000 Na
   0.0000000000000000    0.0000000000000000    0.6945800781250000 Sn
   0.5000000000000000    0.0000000000000000    0.6945800781250000 Sn
   0.5000000000000000    0.5000000000000000    0.1945800781250000 Sn
   0.0000000000000000    0.5000000000000000    0.1945800781250000 Sn
   0.2500000000000000    0.8016433715820312    0.6998291015625000 C
   0.7500000000000000    0.1983566284179688    0.6998291015625000 C
   0.7500000000000000    0.3016433715820312    0.1998291015625000 C
   0.2500000000000000    0.6983566284179688    0.1998291015625000 C
   0.2500000000000000    0.0486907958984375    0.8405303955078125 O
   0.7500000000000000    0.9513092041015625    0.8405303955078125 O
   0.7500000000000000    0.5486907958984375    0.3405303955078125 O
   0.2500000000000000    0.4513092041015625    0.3405303955078125 O
   0.2500000000000000    0.5977172851562500    0.0729370117187500 O
   0.7500000000000000    0.4022827148437500    0.0729370117187500 O
   0.7500000000000000    0.0977172851562500    0.5729370117187500 O
   0.2500000000000000    0.9022827148437500    0.5729370117187500 O
   0.2500000000000000    0.1002960205078125    0.3349151611328125 Sr
   0.7500000000000000    0.8997039794921875    0.3349151611328125 Sr
   0.7500000000000000    0.6002960205078125    0.8349151611328125 Sr
   0.2500000000000000    0.3997039794921875    0.8349151611328125 Sr
   0.9294433593750000    0.1985015869140625    0.2260131835937500 O
   0.0705566406250000    0.8014984130859375    0.2260131835937500 O
   0.4294433593750000    0.8014984130859375    0.2260131835937500 O
   0.5705566406250000    0.1985015869140625    0.2260131835937500 O
   0.4294433593750000    0.6985015869140625    0.7260131835937500 O
   0.5705566406250000    0.3014984130859375    0.7260131835937500 O
   0.9294433593750000    0.3014984130859375    0.7260131835937500 O
   0.0705566406250000    0.6985015869140625    0.7260131835937500 O
