Au4 O4
1.0
   3.5523500366580087    0.0000000000000000   -0.0002322547940518
  -0.0003179240743483    4.8623485357324867   -0.0003179032889594
   0.0000000000000000    0.0000000000000000    5.5566506385803223
O Au
4 4
direct
   0.0000000000000000    0.0000000000000000    0.5000000000000000 O
   0.0000000000000000    0.5000000000000000    0.5000000000000000 O
   0.5000000000000000    0.5000000000000000    0.0000000000000000 O
   0.5000000000000000    0.0000000000000000    0.0000000000000000 O
   0.0000000000000000    0.2500000000000000    0.9165344238281250 Au
   0.0000000000000000    0.7500000000000000    0.0834655761718750 Au
   0.5000000000000000    0.7500000000000000    0.4165344238281250 Au
   0.5000000000000000    0.2500000000000000    0.5834655761718750 Au
