Ca4 Cu4 O12
1.0
   4.1287517459363121    0.0000000000000000   -0.0002699402864437
  -0.0006802411705156   10.4036464246416323   -0.0006801966973901
   0.0000000000000000    0.0000000000000000    5.6352519989013672
Cu O Ca O
4 4 4 8
direct
   0.0000000000000000    0.0000000000000000    0.0000000000000000 Cu
   0.0000000000000000    0.0000000000000000    0.5000000000000000 Cu
   0.5000000000000000    0.5000000000000000    0.0000000000000000 Cu
   0.5000000000000000    0.5000000000000000    0.5000000000000000 Cu
   0.5000000000000000    0.5382232666015625    0.2500000000000000 O
   0.5000000000000000    0.4617767333984375    0.7500000000000000 O
   0.0000000000000000    0.0382232666015625    0.2500000000000000 O
   0.0000000000000000    0.9617767333984375    0.7500000000000000 O
   0.5000000000000000    0.1867828369140625    0.2500000000000000 Ca
   0.5000000000000000    0.8132171630859375    0.7500000000000000 Ca
   0.0000000000000000    0.6867828369140625    0.2500000000000000 Ca
   0.0000000000000000    0.3132171630859375    0.7500000000000000 Ca
   0.2500000000000000    0.2500000000000000    0.0000000000000000 O
   0.7500000000000000    0.7500000000000000    0.5000000000000000 O
   0.7500000000000000    0.2500000000000000    0.5000000000000000 O
   0.2500000000000000    0.7500000000000000    0.0000000000000000 O
   0.7500000000000000    0.7500000000000000    0.0000000000000000 O
   0.2500000000000000    0.2500000000000000    0.5000000000000000 O
   0.2500000000000000    0.7500000000000000    0.5000000000000000 O
   0.7500000000000000    0.2500000000000000    0.0000000000000000 O
