Er8 Al12 Si8
1.0
   5.9365472666696579    0.0000000000000000   -0.0003881350510426
  -0.0010082970777088   15.4209517773386455   -0.0010082311567907
   0.0000000000000000    0.0000000000000000    6.2640471458435059
Al Si Er
12 8 8
direct
   0.0000000000000000    0.0000000000000000    0.0000000000000000 Al
   0.0000000000000000    0.5000000000000000    0.5000000000000000 Al
   0.5000000000000000    0.5000000000000000    0.0000000000000000 Al
   0.5000000000000000    0.0000000000000000    0.5000000000000000 Al
   0.2500000000000000    0.7365722656250000    0.2500000000000000 Al
   0.7500000000000000    0.7634277343750000    0.7500000000000000 Al
   0.7500000000000000    0.2365722656250000    0.2500000000000000 Al
   0.2500000000000000    0.2634277343750000    0.7500000000000000 Al
   0.7500000000000000    0.2634277343750000    0.7500000000000000 Al
   0.2500000000000000    0.2365722656250000    0.2500000000000000 Al
   0.2500000000000000    0.7634277343750000    0.7500000000000000 Al
   0.7500000000000000    0.7365722656250000    0.2500000000000000 Al
   0.2500000000000000    0.5777587890625000    0.2500000000000000 Si
   0.7500000000000000    0.9222412109375000    0.7500000000000000 Si
   0.7500000000000000    0.0777587890625000    0.2500000000000000 Si
   0.2500000000000000    0.4222412109375000    0.7500000000000000 Si
   0.7500000000000000    0.4222412109375000    0.7500000000000000 Si
   0.2500000000000000    0.0777587890625000    0.2500000000000000 Si
   0.2500000000000000    0.9222412109375000    0.7500000000000000 Si
   0.7500000000000000    0.5777587890625000    0.2500000000000000 Si
   0.0000000000000000    0.1077880859375000    0.6040039062500000 Er
   0.0000000000000000    0.3922119140625000    0.1040039062500000 Er
   0.0000000000000000    0.6077880859375000    0.8959960937500000 Er
   0.0000000000000000    0.8922119140625000    0.3959960937500000 Er
   0.5000000000000000    0.6077880859375000    0.6040039062500000 Er
   0.5000000000000000    0.8922119140625000    0.1040039062500000 Er
   0.5000000000000000    0.1077880859375000    0.8959960937500000 Er
   0.5000000000000000    0.3922119140625000    0.3959960937500000 Er
