Y8 Mg4
1.0
   3.1593470505900196    0.0000000000000000   -0.0002065600211131
  -0.0011718967087640   17.9230536648357628   -0.0011718200919527
   0.0000000000000000    0.0000000000000000    5.2946500778198242
Mg Y
4 8
direct
   0.0000000000000000    0.2818603515625000    0.2500000000000000 Mg
   0.0000000000000000    0.7181396484375000    0.7500000000000000 Mg
   0.5000000000000000    0.7818603515625000    0.2500000000000000 Mg
   0.5000000000000000    0.2181396484375000    0.7500000000000000 Mg
   0.0000000000000000    0.9373168945312500    0.2500000000000000 Y
   0.0000000000000000    0.0626831054687500    0.7500000000000000 Y
   0.5000000000000000    0.4373168945312500    0.2500000000000000 Y
   0.5000000000000000    0.5626831054687500    0.7500000000000000 Y
   0.5000000000000000    0.1091918945312500    0.2500000000000000 Y
   0.5000000000000000    0.8908081054687500    0.7500000000000000 Y
   0.0000000000000000    0.6091918945312500    0.2500000000000000 Y
   0.0000000000000000    0.3908081054687500    0.7500000000000000 Y
