P2 I2 O8
1.0
   7.2858486019815807    0.0000000000000000   -0.0004763531884763
  -0.0004763843337542    7.2858485864074147   -0.0004763531884763
   0.0000000000000000    0.0000000000000000    4.1549482345581055
P I O
2 2 8
direct
   0.0000000000000000    0.0000000000000000    0.0000000000000000 P
   0.5000000000000000    0.5000000000000000    0.0000000000000000 P
   0.5000000000000000    0.0000000000000000    0.5999755859375000 I
   0.0000000000000000    0.5000000000000000    0.4000244140625000 I
   0.0040283203125000    0.8260192871093750    0.8070678710937500 O
   0.9959716796875000    0.1739807128906250    0.8070678710937500 O
   0.8260192871093750    0.9959716796875000    0.1929321289062500 O
   0.1739807128906250    0.0040283203125000    0.1929321289062500 O
   0.4959716796875000    0.3260192871093750    0.1929321289062500 O
   0.5040283203125000    0.6739807128906250    0.1929321289062500 O
   0.6739807128906250    0.4959716796875000    0.8070678710937500 O
   0.3260192871093750    0.5040283203125000    0.8070678710937500 O
