Na4 Co4 O8
1.0
   4.9671506775550371    0.0000000000000000   -0.0003247553157023
  -0.0005500472057576    8.4124526617914874   -0.0005500112445140
   0.0000000000000000    0.0000000000000000    5.0981488227844238
O Na Co
8 4 4
direct
   0.5342330932617188    0.4148864746093750    0.0291290283203125 O
   0.4657669067382812    0.5851135253906250    0.5291290283203125 O
   0.0342330932617188    0.0851135253906250    0.0291290283203125 O
   0.9657669067382812    0.9148864746093750    0.5291290283203125 O
   0.9143066406250000    0.3384132385253906    0.6206665039062500 O
   0.0856933593750000    0.6615867614746094    0.1206665039062500 O
   0.4143066406250000    0.1615867614746094    0.6206665039062500 O
   0.5856933593750000    0.8384132385253906    0.1206665039062500 O
   0.5006713867187500    0.1256103515625000    0.1531372070312500 Na
   0.4993286132812500    0.8743896484375000    0.6531372070312500 Na
   0.0006713867187500    0.3743896484375000    0.1531372070312500 Na
   0.9993286132812500    0.6256103515625000    0.6531372070312500 Na
   0.5327758789062500    0.3773384094238281    0.6643066406250000 Co
   0.4672241210937500    0.6226615905761719    0.1643066406250000 Co
   0.0327758789062500    0.1226615905761719    0.6643066406250000 Co
   0.9672241210937500    0.8773384094238281    0.1643066406250000 Co
