Cs4 Na4 Sm4 Cl16
1.0
   8.4513056297103670    0.0000000000000000   -5.9769393001622761
  -0.0012430074695758    9.8403510051977001   -0.0006433681058339
   0.0000000000000000    0.0000000000000000    9.0412511825561523
Na Cs Sm Cl
4 4 4 16
direct
   0.0000000000000000    0.5410156250000000    0.2500000000000000 Na
   0.0000000000000000    0.4589843750000000    0.7500000000000000 Na
   0.5000000000000000    0.0410156250000000    0.2500000000000000 Na
   0.5000000000000000    0.9589843750000000    0.7500000000000000 Na
   0.5000000000000000    0.3778991699218750    0.2500000000000000 Cs
   0.5000000000000000    0.6221008300781250    0.7500000000000000 Cs
   0.0000000000000000    0.8778991699218750    0.2500000000000000 Cs
   0.0000000000000000    0.1221008300781250    0.7500000000000000 Cs
   0.5000000000000000    0.7463378906250000    0.2500000000000000 Sm
   0.5000000000000000    0.2536621093750000    0.7500000000000000 Sm
   0.0000000000000000    0.2463378906250000    0.2500000000000000 Sm
   0.0000000000000000    0.7536621093750000    0.7500000000000000 Sm
   0.1028289794921875    0.6628417968750000    0.5611572265625000 Cl
   0.8971710205078125    0.6628417968750000    0.9388427734375000 Cl
   0.8971710205078125    0.3371582031250000    0.4388427734375000 Cl
   0.1028289794921875    0.3371582031250000    0.0611572265625000 Cl
   0.6028289794921875    0.1628417968750000    0.5611572265625000 Cl
   0.3971710205078125    0.1628417968750000    0.9388427734375000 Cl
   0.3971710205078125    0.8371582031250000    0.4388427734375000 Cl
   0.6028289794921875    0.8371582031250000    0.0611572265625000 Cl
   0.7947998046875000    0.9075317382812500    0.4680109024047852 Cl
   0.2052001953125000    0.9075317382812500    0.0319890975952148 Cl
   0.2052001953125000    0.0924682617187500    0.5319890975952148 Cl
   0.7947998046875000    0.0924682617187500    0.9680109024047852 Cl
   0.2947998046875000    0.4075317382812500    0.4680109024047852 Cl
   0.7052001953125000    0.4075317382812500    0.0319890975952148 Cl
   0.7052001953125000    0.5924682617187500    0.5319890975952148 Cl
   0.2947998046875000    0.5924682617187500    0.9680109024047852 Cl
