Rb3 Ce3 S6
1.0
   4.7182521719224599    0.0000000000000000   -0.0003084821808567
  -2.3588584136451805    4.0862807713404070   -0.0003084821808567
   0.0000000000000000    0.0000000000000000   22.3901481628417969
Rb Ce S
3 3 6
direct
   0.0000000000000000    0.0000000000000000    0.0000000000000000 Rb
   0.6666666865348816    0.3333333432674408    0.3333333432674408 Rb
   0.3333333432674408    0.6666666865348816    0.6666666865348816 Rb
   0.3333333432674408    0.6666666865348816    0.1666666716337204 Ce
   0.6666666865348816    0.3333333432674408    0.8333333134651184 Ce
   0.0000000000000000    0.0000000000000000    0.5000000000000000 Ce
   0.3333333432674408    0.6666666865348816    0.8919067382812500 S
   0.6666666865348816    0.3333333432674408    0.1080932617187500 S
   0.0000000000000000    0.0000000000000000    0.2252401113510132 S
   0.3333333730697632    0.6666666865348816    0.4414266347885132 S
   0.6666666865348816    0.3333333730697632    0.5585734844207764 S
   0.0000000000000000    0.0000000000000000    0.7747599482536316 S
