Cs8 W4 Br24
1.0
  11.2944459673763618    0.0000000000000000   -0.0007384377088443
  -0.0007384859899268   11.2944459432334536   -0.0007384377088443
   0.0000000000000000    0.0000000000000000   11.2944459915161133
W Cs Br
4 8 24
direct
   0.0000000000000000    0.0000000000000000    0.0000000000000000 W
   0.0000000000000000    0.5000000000000000    0.5000000000000000 W
   0.5000000000000000    0.0000000000000000    0.5000000000000000 W
   0.5000000000000000    0.5000000000000000    0.0000000000000000 W
   0.2500000000000000    0.2500000000000000    0.2500000000000000 Cs
   0.7500000000000000    0.7500000000000000    0.2500000000000000 Cs
   0.7500000000000000    0.2500000000000000    0.7500000000000000 Cs
   0.2500000000000000    0.7500000000000000    0.7500000000000000 Cs
   0.2500000000000000    0.2500000000000000    0.7500000000000000 Cs
   0.7500000000000000    0.7500000000000000    0.7500000000000000 Cs
   0.2500000000000000    0.7500000000000000    0.2500000000000000 Cs
   0.7500000000000000    0.2500000000000000    0.2500000000000000 Cs
   0.7691650390625000    0.0000000000000000    0.0000000000000000 Br
   0.2308349609375000    0.0000000000000000    0.0000000000000000 Br
   0.0000000000000000    0.7691650390625000    0.0000000000000000 Br
   0.0000000000000000    0.2308349609375000    0.0000000000000000 Br
   0.0000000000000000    0.0000000000000000    0.7691650390625000 Br
   0.0000000000000000    0.0000000000000000    0.2308349609375000 Br
   0.7691650390625000    0.5000000000000000    0.5000000000000000 Br
   0.2308349609375000    0.5000000000000000    0.5000000000000000 Br
   0.0000000000000000    0.2691650390625000    0.5000000000000000 Br
   0.0000000000000000    0.7308349609375000    0.5000000000000000 Br
   0.0000000000000000    0.5000000000000000    0.2691650390625000 Br
   0.0000000000000000    0.5000000000000000    0.7308349609375000 Br
   0.2691650390625000    0.0000000000000000    0.5000000000000000 Br
   0.7308349609375000    0.0000000000000000    0.5000000000000000 Br
   0.5000000000000000    0.7691650390625000    0.5000000000000000 Br
   0.5000000000000000    0.2308349609375000    0.5000000000000000 Br
   0.5000000000000000    0.0000000000000000    0.2691650390625000 Br
   0.5000000000000000    0.0000000000000000    0.7308349609375000 Br
   0.2691650390625000    0.5000000000000000    0.0000000000000000 Br
   0.7308349609375000    0.5000000000000000    0.0000000000000000 Br
   0.5000000000000000    0.2691650390625000    0.0000000000000000 Br
   0.5000000000000000    0.7308349609375000    0.0000000000000000 Br
   0.5000000000000000    0.5000000000000000    0.7691650390625000 Br
   0.5000000000000000    0.5000000000000000    0.2308349609375000 Br
