Nb4 Cr16 N16
1.0
  12.7230679531779689    0.0000000000000000   -2.6565382601135652
  -0.0002309603035259    2.8711461866614312   -0.0001877172749172
   0.0000000000000000    0.0000000000000000    9.4866504669189453
N Cr Nb
16 16 4
direct
   0.9450683593750000    0.0000000000000000    0.3365478515625000 N
   0.0549316406250000    0.0000000000000000    0.6634521484375000 N
   0.4450683593750000    0.5000000000000000    0.3365478515625000 N
   0.5549316406250000    0.5000000000000000    0.6634521484375000 N
   0.3148708343505859    0.0000000000000000    0.5987548828125000 N
   0.6851291656494141    0.0000000000000000    0.4012451171875000 N
   0.8148708343505859    0.5000000000000000    0.5987548828125000 N
   0.1851291656494141    0.5000000000000000    0.4012451171875000 N
   0.6812667846679688    0.0000000000000000    0.8912353515625000 N
   0.3187332153320312    0.0000000000000000    0.1087646484375000 N
   0.1812667846679688    0.5000000000000000    0.8912353515625000 N
   0.8187332153320312    0.5000000000000000    0.1087646484375000 N
   0.0896606445312500    0.0000000000000000    0.1525878906250000 N
   0.9103393554687500    0.0000000000000000    0.8474121093750000 N
   0.5896606445312500    0.5000000000000000    0.1525878906250000 N
   0.4103393554687500    0.5000000000000000    0.8474121093750000 N
   0.4792327880859375    0.0000000000000000    0.7532958984375000 Cr
   0.5207672119140625    0.0000000000000000    0.2467041015625000 Cr
   0.9792327880859375    0.5000000000000000    0.7532958984375000 Cr
   0.0207672119140625    0.5000000000000000    0.2467041015625000 Cr
   0.0818786621093750    0.0000000000000000    0.9261474609375000 Cr
   0.9181213378906250    0.0000000000000000    0.0738525390625000 Cr
   0.5818786621093750    0.5000000000000000    0.9261474609375000 Cr
   0.4181213378906250    0.5000000000000000    0.0738525390625000 Cr
   0.9143524169921875    0.0000000000000000    0.5538330078125000 Cr
   0.0856475830078125    0.0000000000000000    0.4461669921875000 Cr
   0.4143524169921875    0.5000000000000000    0.5538330078125000 Cr
   0.5856475830078125    0.5000000000000000    0.4461669921875000 Cr
   0.3015441894531250    0.0000000000000000    0.8773498535156250 Cr
   0.6984558105468750    0.0000000000000000    0.1226501464843750 Cr
   0.8015441894531250    0.5000000000000000    0.8773498535156250 Cr
   0.1984558105468750    0.5000000000000000    0.1226501464843750 Cr
   0.2924804687500000    0.0000000000000000    0.3418426513671875 Nb
   0.7075195312500000    0.0000000000000000    0.6581573486328125 Nb
   0.7924804687500000    0.5000000000000000    0.3418426513671875 Nb
   0.2075195312500000    0.5000000000000000    0.6581573486328125 Nb
