Lu6 Cu18 Se18
1.0
   6.8928499074480065    0.0000000000000000   -0.0004506586961207
  -3.4460339137728351    5.9696088742675153   -0.0004506586961207
   0.0000000000000000    0.0000000000000000   19.7308483123779297
Lu Cu Se
6 18 18
direct
   0.6666666865348816    0.3333333432674408    0.0060577392578125 Lu
   0.3333333134651184    0.6666666269302368    0.9939422607421875 Lu
   0.3333333730697632    0.6666666865348816    0.3393910825252533 Lu
   0.0000000000000000    0.0000000000000000    0.3272756040096283 Lu
   0.0000000000000000    0.0000000000000000    0.6727244257926941 Lu
   0.6666666269302368    0.3333333432674408    0.6606089472770691 Lu
   0.6584472656250000    0.0055885314941406    0.8779296875000000 Cu
   0.9944114685058594    0.6528587341308594    0.8779296875000000 Cu
   0.3471412658691406    0.3415527343750000    0.8779296875000000 Cu
   0.3415527343750000    0.9944114685058594    0.1220703125000000 Cu
   0.0055885314941406    0.3471412658691406    0.1220703125000000 Cu
   0.6528587341308594    0.6584472656250000    0.1220703125000000 Cu
   0.3251140117645264    0.3389218747615814    0.2112630605697632 Cu
   0.6610781550407410    0.9861921072006226    0.2112630605697632 Cu
   0.0138079524040222    0.6748861074447632    0.2112630605697632 Cu
   0.0082194209098816    0.3277448117733002    0.4554036855697632 Cu
   0.6722552180290222    0.6804746389389038    0.4554036855697632 Cu
   0.3195254802703857    0.9917806386947632    0.4554036855697632 Cu
   0.9917806386947632    0.6722552180290222    0.5445964336395264 Cu
   0.3277448117733002    0.3195254802703857    0.5445964336395264 Cu
   0.6804746389389038    0.0082194209098816    0.5445964336395264 Cu
   0.6748861074447632    0.6610781550407410    0.7887369990348816 Cu
   0.3389218747615814    0.0138079524040222    0.7887369990348816 Cu
   0.9861921072006226    0.3251140117645264    0.7887369990348816 Cu
   0.3268432617187500    0.9967041015625000    0.9176635742187500 Se
   0.0032958984375000    0.3301391601562500    0.9176635742187500 Se
   0.6698608398437500    0.6731567382812500    0.9176635742187500 Se
   0.6731567382812500    0.0032958984375000    0.0823364257812500 Se
   0.9967041015625000    0.6698608398437500    0.0823364257812500 Se
   0.3301391601562500    0.3268432617187500    0.0823364257812500 Se
   0.9935099482536316    0.3300374746322632    0.2509969472885132 Se
   0.6699625849723816    0.6634725332260132    0.2509969472885132 Se
   0.3365275859832764    0.0064900815486908    0.2509969472885132 Se
   0.3398234248161316    0.3366292715072632    0.4156697988510132 Se
   0.6633708477020264    0.0031942129135132    0.4156697988510132 Se
   0.9968058466911316    0.6601766347885132    0.4156697988510132 Se
   0.6601766347885132    0.6633708477020264    0.5843303203582764 Se
   0.3366292715072632    0.9968058466911316    0.5843303203582764 Se
   0.0031942129135132    0.3398234248161316    0.5843303203582764 Se
   0.0064900815486908    0.6699625849723816    0.7490031123161316 Se
   0.3300374746322632    0.3365275859832764    0.7490031123161316 Se
   0.6634725332260132    0.9935099482536316    0.7490031123161316 Se
