Y3 Co9 Sb3 O24
1.0
   5.8055491323366049    0.0000000000000000   -0.0003795703137851
  -2.9024452101428997    5.0279431709291273   -0.0003795703137851
   0.0000000000000000    0.0000000000000000   14.0978507995605469
Y Sb O Co O
3 3 6 9 18
direct
   0.0000000000000000    0.0000000000000000    0.0000000000000000 Y
   0.6666666865348816    0.3333333432674408    0.3333333432674408 Y
   0.3333333432674408    0.6666666865348816    0.6666666865348816 Y
   0.3333333432674408    0.6666666865348816    0.1666666716337204 Sb
   0.6666666865348816    0.3333333432674408    0.8333333134651184 Sb
   0.0000000000000000    0.0000000000000000    0.5000000000000000 Sb
   0.6666666865348816    0.3333333432674408    0.1128540039062500 O
   0.3333333432674408    0.6666666865348816    0.8871459960937500 O
   0.3333333730697632    0.6666666865348816    0.4461873471736908 O
   0.0000000000000000    0.0000000000000000    0.2204793393611908 O
   0.0000000000000000    0.0000000000000000    0.7795206904411316 O
   0.6666666865348816    0.3333333730697632    0.5538126826286316 O
   0.3333333432674408    0.1666666716337204    0.1666666716337204 Co
   0.8333333134651184    0.1666666716337204    0.1666666716337204 Co
   0.8333333134651184    0.6666666269302368    0.1666666716337204 Co
   0.1666666716337204    0.3333333432674408    0.8333333134651184 Co
   0.1666666716337204    0.8333333134651184    0.8333333134651184 Co
   0.6666666269302368    0.8333333134651184    0.8333333134651184 Co
   0.0000000000000000    0.5000000000000000    0.5000000000000000 Co
   0.5000000000000000    0.5000000000000000    0.5000000000000000 Co
   0.5000000000000000    0.0000000000000000    0.5000000000000000 Co
   0.3412017822265625    0.1706008911132812    0.9085693359375000 O
   0.8293991088867188    0.1706008911132812    0.9085693359375000 O
   0.8293991088867188    0.6587982177734375    0.9085693359375000 O
   0.1706008911132812    0.3412017822265625    0.0914306640625000 O
   0.1706008911132812    0.8293991088867188    0.0914306640625000 O
   0.6587982177734375    0.8293991088867188    0.0914306640625000 O
   0.0078685283660889    0.5039342641830444    0.2419027090072632 O
   0.4960657954216003    0.5039342641830444    0.2419027090072632 O
   0.4960657954216003    0.9921315908432007    0.2419027090072632 O
   0.8372675776481628    0.6745351552963257    0.4247640371322632 O
   0.8372675776481628    0.1627324521541595    0.4247640371322632 O
   0.3254649043083191    0.1627324521541595    0.4247640371322632 O
   0.6745351552963257    0.8372675776481628    0.5752360820770264 O
   0.1627324521541595    0.8372675776481628    0.5752360820770264 O
   0.1627324521541595    0.3254649043083191    0.5752360820770264 O
   0.5039342641830444    0.0078685283660889    0.7580973505973816 O
   0.5039342641830444    0.4960657954216003    0.7580973505973816 O
   0.9921315908432007    0.4960657954216003    0.7580973505973816 O
