Ba4 Hg6 O10 F4
1.0
  13.6677613741505404    0.0000000000000000   -2.9379118981324845
  -0.0003023254871100    3.7357492244722321   -0.0002442455446808
   0.0000000000000000    0.0000000000000000    8.3076505661010742
Hg O F Ba Hg
2 10 4 4 4
direct
   0.0000000000000000    0.0000000000000000    0.0000000000000000 Hg
   0.5000000000000000    0.5000000000000000    0.0000000000000000 Hg
   0.5000000000000000    0.0000000000000000    0.5000000000000000 O
   0.0000000000000000    0.5000000000000000    0.5000000000000000 O
   0.6429443359375000    0.0000000000000000    0.0268554687500000 O
   0.3570556640625000    0.0000000000000000    0.9731445312500000 O
   0.1429443359375000    0.5000000000000000    0.0268554687500000 O
   0.8570556640625000    0.5000000000000000    0.9731445312500000 O
   0.0198974609375000    0.0000000000000000    0.2552490234375000 O
   0.9801025390625000    0.0000000000000000    0.7447509765625000 O
   0.5198974609375000    0.5000000000000000    0.2552490234375000 O
   0.4801025390625000    0.5000000000000000    0.7447509765625000 O
   0.7380981445312500    0.0000000000000000    0.6271133422851562 F
   0.2619018554687500    0.0000000000000000    0.3728866577148438 F
   0.2380981445312500    0.5000000000000000    0.6271133422851562 F
   0.7619018554687500    0.5000000000000000    0.3728866577148438 F
   0.1784477233886719    0.0000000000000000    0.8079547882080078 Ba
   0.8215522766113281    0.0000000000000000    0.1920452117919922 Ba
   0.6784477233886719    0.5000000000000000    0.8079547882080078 Ba
   0.3215522766113281    0.5000000000000000    0.1920452117919922 Ba
   0.6127624511718750    0.0000000000000000    0.3725738525390625 Hg
   0.3872375488281250    0.0000000000000000    0.6274261474609375 Hg
   0.1127624511718750    0.5000000000000000    0.3725738525390625 Hg
   0.8872375488281250    0.5000000000000000    0.6274261474609375 Hg
