Be4 Nb2
1.0
   3.0152466232704436    0.0000000000000000   -0.0001971386480151
  -1.5074522529427861    2.6113789277394295   -0.0001971386480151
   0.0000000000000000    0.0000000000000000    7.2858486175537109
Be Nb Be
2 2 2
direct
   0.0000000000000000    0.0000000000000000    0.0000000000000000 Be
   0.0000000000000000    0.0000000000000000    0.5000000000000000 Be
   0.3333333432674408    0.6666666865348816    0.2500000000000000 Nb
   0.6666666269302368    0.3333333134651184    0.7500000000000000 Nb
   0.6666666865348816    0.3333333432674408    0.2500000000000000 Be
   0.3333333134651184    0.6666666269302368    0.7500000000000000 Be
