Sr2 Co2 O8
1.0
   4.3514499571302592    0.0000000000000000   -0.0002845004301915
  -0.0003676035965160    5.6221499202712737   -0.0003675795631561
   0.0000000000000000    0.0000000000000000    7.1286497116088867
O Co O Sr O
2 2 2 2 4
direct
   0.2500000000000000    0.0000000000000000    0.3211669921875000 O
   0.7500000000000000    0.0000000000000000    0.6788330078125000 O
   0.2500000000000000    0.0000000000000000    0.7151794433593750 Co
   0.7500000000000000    0.0000000000000000    0.2848205566406250 Co
   0.2500000000000000    0.5000000000000000    0.5807495117187500 O
   0.7500000000000000    0.5000000000000000    0.4192504882812500 O
   0.2500000000000000    0.5000000000000000    0.2210693359375000 Sr
   0.7500000000000000    0.5000000000000000    0.7789306640625000 Sr
   0.2500000000000000    0.2433776855468750    0.8650817871093750 O
   0.2500000000000000    0.7566223144531250    0.8650817871093750 O
   0.7500000000000000    0.2433776855468750    0.1349182128906250 O
   0.7500000000000000    0.7566223144531250    0.1349182128906250 O
