Sr4 Zn2 O8
1.0
   4.2073492913921040    0.0000000000000000   -0.0002750790415056
  -0.0002750970269278    4.2073492823985115   -0.0002750790415056
   0.0000000000000000    0.0000000000000000   14.8576517105102539
Zn O Sr
2 8 4
direct
   0.0000000000000000    0.0000000000000000    0.0000000000000000 Zn
   0.5000000000000000    0.5000000000000000    0.5000000000000000 Zn
   0.0000000000000000    0.5000000000000000    0.0000000000000000 O
   0.5000000000000000    0.0000000000000000    0.0000000000000000 O
   0.5000000000000000    0.0000000000000000    0.5000000000000000 O
   0.0000000000000000    0.5000000000000000    0.5000000000000000 O
   0.0000000000000000    0.0000000000000000    0.1871318817138672 O
   0.0000000000000000    0.0000000000000000    0.8128681182861328 O
   0.5000000000000000    0.5000000000000000    0.6871318817138672 O
   0.5000000000000000    0.5000000000000000    0.3128681182861328 O
   0.0000000000000000    0.0000000000000000    0.6350708007812500 Sr
   0.0000000000000000    0.0000000000000000    0.3649291992187500 Sr
   0.5000000000000000    0.5000000000000000    0.1350708007812500 Sr
   0.5000000000000000    0.5000000000000000    0.8649291992187500 Sr
