K2 Na1 Li2 Br2 Cl2
1.0
   4.6527528663373552    0.0000000000000000   -0.0003041997966399
  -0.0003042196860569    4.6527528563916718   -0.0003041997966399
   0.0000000000000000    0.0000000000000000   12.5913505554199219
Br Na Li Cl K
2 1 2 2 2
direct
   0.0000000000000000    0.0000000000000000    0.0000000000000000 Br
   0.5000000000000000    0.5000000000000000    0.0000000000000000 Br
   0.5000000000000000    0.5000000000000000    0.5000000000000000 Na
   0.0000000000000000    0.0000000000000000    0.2105407714843750 Li
   0.0000000000000000    0.0000000000000000    0.7894592285156250 Li
   0.5000000000000000    0.5000000000000000    0.6668090820312500 Cl
   0.5000000000000000    0.5000000000000000    0.3331909179687500 Cl
   0.5000000000000000    0.5000000000000000    0.8299560546875000 K
   0.5000000000000000    0.5000000000000000    0.1700439453125000 K
