Sm2 Ti2 V2 W2 O20
1.0
   4.7444524663610910    0.0000000000000000   -0.0003101951719544
  -0.0005551862656275    8.4910497302421142   -0.0005551499684001
   0.0000000000000000    0.0000000000000000    8.5041522979736328
Ti V Sm W O
2 2 2 2 20
direct
   0.0000000000000000    0.0000000000000000    0.0033569335937500 Ti
   0.5000000000000000    0.5000000000000000    0.5033569335937500 Ti
   0.0000000000000000    0.5000000000000000    0.8713378906250000 V
   0.5000000000000000    0.0000000000000000    0.3713378906250000 V
   0.5000000000000000    0.0000000000000000    0.7143554687500000 Sm
   0.0000000000000000    0.5000000000000000    0.2143554687500000 Sm
   0.5000000000000000    0.0000000000000000    0.1088256835937500 W
   0.0000000000000000    0.5000000000000000    0.6088256835937500 W
   0.5000000000000000    0.1536560058593750    0.4963836669921875 O
   0.5000000000000000    0.8463439941406250    0.4963836669921875 O
   0.0000000000000000    0.6536560058593750    0.9963836669921875 O
   0.0000000000000000    0.3463439941406250    0.9963836669921875 O
   0.5000000000000000    0.8584594726562500    0.9536437988281250 O
   0.5000000000000000    0.1415405273437500    0.9536437988281250 O
   0.0000000000000000    0.3584594726562500    0.4536437988281250 O
   0.0000000000000000    0.6415405273437500    0.4536437988281250 O
   0.0000000000000000    0.0780639648437500    0.7851562500000000 O
   0.0000000000000000    0.9219360351562500    0.7851562500000000 O
   0.5000000000000000    0.5780639648437500    0.2851562500000000 O
   0.5000000000000000    0.4219360351562500    0.2851562500000000 O
   0.7471923828125000    0.6192626953125000    0.7145080566406250 O
   0.2528076171875000    0.3807373046875000    0.7145080566406250 O
   0.7471923828125000    0.3807373046875000    0.7145080566406250 O
   0.2528076171875000    0.6192626953125000    0.7145080566406250 O
   0.2471923828125000    0.1192626953125000    0.2145080566406250 O
   0.7528076171875000    0.8807373046875000    0.2145080566406250 O
   0.2471923828125000    0.8807373046875000    0.2145080566406250 O
   0.7528076171875000    0.1192626953125000    0.2145080566406250 O
