Ti8 Co4 Rh4
1.0
   6.3688487870469643    0.0000000000000000   -0.0004163991859244
  -0.0004164264112451    6.3688487734329691   -0.0004163991859244
   0.0000000000000000    0.0000000000000000    6.3688488006591797
Rh Co Ti
4 4 8
direct
   0.0000000000000000    0.0000000000000000    0.0000000000000000 Rh
   0.0000000000000000    0.5000000000000000    0.5000000000000000 Rh
   0.5000000000000000    0.0000000000000000    0.5000000000000000 Rh
   0.5000000000000000    0.5000000000000000    0.0000000000000000 Rh
   0.5000000000000000    0.0000000000000000    0.0000000000000000 Co
   0.0000000000000000    0.5000000000000000    0.0000000000000000 Co
   0.0000000000000000    0.0000000000000000    0.5000000000000000 Co
   0.5000000000000000    0.5000000000000000    0.5000000000000000 Co
   0.2500000000000000    0.2500000000000000    0.2500000000000000 Ti
   0.7500000000000000    0.7500000000000000    0.2500000000000000 Ti
   0.7500000000000000    0.2500000000000000    0.7500000000000000 Ti
   0.2500000000000000    0.7500000000000000    0.7500000000000000 Ti
   0.2500000000000000    0.2500000000000000    0.7500000000000000 Ti
   0.7500000000000000    0.7500000000000000    0.7500000000000000 Ti
   0.2500000000000000    0.7500000000000000    0.2500000000000000 Ti
   0.7500000000000000    0.2500000000000000    0.2500000000000000 Ti
