Ca2 Mn8 Cu6 O24
1.0
   7.4823498565969970    0.0000000000000000   -0.0004892005593578
  -0.0004892325446320    7.4823498406027920   -0.0004892005593578
   0.0000000000000000    0.0000000000000000    7.4823498725891113
Ca Cu Mn O
2 6 8 24
direct
   0.0000000000000000    0.0000000000000000    0.0000000000000000 Ca
   0.5000000000000000    0.5000000000000000    0.5000000000000000 Ca
   0.5000000000000000    0.0000000000000000    0.0000000000000000 Cu
   0.0000000000000000    0.5000000000000000    0.0000000000000000 Cu
   0.0000000000000000    0.0000000000000000    0.5000000000000000 Cu
   0.0000000000000000    0.5000000000000000    0.5000000000000000 Cu
   0.5000000000000000    0.0000000000000000    0.5000000000000000 Cu
   0.5000000000000000    0.5000000000000000    0.0000000000000000 Cu
   0.2500000000000000    0.2500000000000000    0.2500000000000000 Mn
   0.7500000000000000    0.7500000000000000    0.2500000000000000 Mn
   0.7500000000000000    0.2500000000000000    0.7500000000000000 Mn
   0.2500000000000000    0.7500000000000000    0.7500000000000000 Mn
   0.7500000000000000    0.7500000000000000    0.7500000000000000 Mn
   0.2500000000000000    0.2500000000000000    0.7500000000000000 Mn
   0.2500000000000000    0.7500000000000000    0.2500000000000000 Mn
   0.7500000000000000    0.2500000000000000    0.2500000000000000 Mn
   0.5000000000000000    0.6702270507812500    0.8092041015625000 O
   0.5000000000000000    0.3297729492187500    0.8092041015625000 O
   0.5000000000000000    0.6702270507812500    0.1907958984375000 O
   0.5000000000000000    0.3297729492187500    0.1907958984375000 O
   0.8092041015625000    0.5000000000000000    0.6702270507812500 O
   0.8092041015625000    0.5000000000000000    0.3297729492187500 O
   0.1907958984375000    0.5000000000000000    0.6702270507812500 O
   0.1907958984375000    0.5000000000000000    0.3297729492187500 O
   0.6702270507812500    0.8092041015625000    0.5000000000000000 O
   0.3297729492187500    0.8092041015625000    0.5000000000000000 O
   0.6702270507812500    0.1907958984375000    0.5000000000000000 O
   0.3297729492187500    0.1907958984375000    0.5000000000000000 O
   0.0000000000000000    0.1702270507812500    0.3092041015625000 O
   0.0000000000000000    0.8297729492187500    0.3092041015625000 O
   0.0000000000000000    0.1702270507812500    0.6907958984375000 O
   0.0000000000000000    0.8297729492187500    0.6907958984375000 O
   0.3092041015625000    0.0000000000000000    0.1702270507812500 O
   0.3092041015625000    0.0000000000000000    0.8297729492187500 O
   0.6907958984375000    0.0000000000000000    0.1702270507812500 O
   0.6907958984375000    0.0000000000000000    0.8297729492187500 O
   0.1702270507812500    0.3092041015625000    0.0000000000000000 O
   0.8297729492187500    0.3092041015625000    0.0000000000000000 O
   0.1702270507812500    0.6907958984375000    0.0000000000000000 O
   0.8297729492187500    0.6907958984375000    0.0000000000000000 O
