Pu1 Ga5 Co1
1.0
   4.1811528116507315    0.0000000000000000   -0.0002733662998151
  -0.0002733841732535    4.1811528027131359   -0.0002733662998151
   0.0000000000000000    0.0000000000000000    8.2421512603759766
Pu Co Ga
1 1 5
direct
   0.0000000000000000    0.0000000000000000    0.0000000000000000 Pu
   0.0000000000000000    0.0000000000000000    0.5000000000000000 Co
   0.5000000000000000    0.5000000000000000    0.0000000000000000 Ga
   0.0000000000000000    0.5000000000000000    0.6770019531250000 Ga
   0.5000000000000000    0.0000000000000000    0.6770019531250000 Ga
   0.0000000000000000    0.5000000000000000    0.3229980468750000 Ga
   0.5000000000000000    0.0000000000000000    0.3229980468750000 Ga
