Cd3 Hg3 Se6
1.0
   4.0763511570590509    0.0000000000000000   -0.0002665143042481
  -2.0379443220566871    3.5303571626470847   -0.0002665143042481
   0.0000000000000000    0.0000000000000000   39.4987487792968750
Cd Hg Se
3 3 6
direct
   0.0000000000000000    0.0000000000000000    0.0000000000000000 Cd
   0.6666666865348816    0.3333333432674408    0.3333333432674408 Cd
   0.3333333432674408    0.6666666865348816    0.6666666865348816 Cd
   0.3333333432674408    0.6666666865348816    0.1666666716337204 Hg
   0.6666666865348816    0.3333333432674408    0.8333333134651184 Hg
   0.0000000000000000    0.0000000000000000    0.5000000000000000 Hg
   0.6666666865348816    0.3333333432674408    0.6260681152343750 Se
   0.3333333432674408    0.6666666865348816    0.3739318847656250 Se
   0.3333333730697632    0.6666666865348816    0.9594014883041382 Se
   0.0000000000000000    0.0000000000000000    0.7072652578353882 Se
   0.0000000000000000    0.0000000000000000    0.2927348613739014 Se
   0.6666666865348816    0.3333333730697632    0.0405985713005066 Se
