Ce4 Ti4 O12
1.0
   5.9234528414962284    0.0000000000000000   -0.0003872789296045
  -0.0005483340403039    8.3862514137345503   -0.0005482981910645
   0.0000000000000000    0.0000000000000000    5.5828514099121094
Ti O Ce O
4 4 4 8
direct
   0.5000000000000000    0.0000000000000000    0.0000000000000000 Ti
   0.0000000000000000    0.0000000000000000    0.5000000000000000 Ti
   0.5000000000000000    0.5000000000000000    0.0000000000000000 Ti
   0.0000000000000000    0.5000000000000000    0.5000000000000000 Ti
   0.4757080078125000    0.2500000000000000    0.0736083984375000 O
   0.0242919921875000    0.7500000000000000    0.5736083984375000 O
   0.5242919921875000    0.7500000000000000    0.9263916015625000 O
   0.9757080078125000    0.2500000000000000    0.4263916015625000 O
   0.5566101074218750    0.2500000000000000    0.5169601440429688 Ce
   0.9433898925781250    0.7500000000000000    0.0169601440429688 Ce
   0.4433898925781250    0.7500000000000000    0.4830398559570312 Ce
   0.0566101074218750    0.2500000000000000    0.9830398559570312 Ce
   0.7957401275634766    0.0402832031250000    0.7954711914062500 O
   0.7042598724365234    0.9597167968750000    0.2954711914062500 O
   0.2042598724365234    0.5402832031250000    0.2045288085937500 O
   0.2957401275634766    0.4597167968750000    0.7045288085937500 O
   0.2042598724365234    0.9597167968750000    0.2045288085937500 O
   0.2957401275634766    0.0402832031250000    0.7045288085937500 O
   0.7957401275634766    0.4597167968750000    0.7954711914062500 O
   0.7042598724365234    0.5402832031250000    0.2954711914062500 O
