Ta4 Mn8 Si4
1.0
   5.9365472666696579    0.0000000000000000   -0.0003881350510426
  -0.0003881604283767    5.9365472539797466   -0.0003881350510426
   0.0000000000000000    0.0000000000000000    5.9365472793579102
Ta Si Mn
4 4 8
direct
   0.0000000000000000    0.0000000000000000    0.0000000000000000 Ta
   0.0000000000000000    0.5000000000000000    0.5000000000000000 Ta
   0.5000000000000000    0.0000000000000000    0.5000000000000000 Ta
   0.5000000000000000    0.5000000000000000    0.0000000000000000 Ta
   0.5000000000000000    0.0000000000000000    0.0000000000000000 Si
   0.0000000000000000    0.5000000000000000    0.0000000000000000 Si
   0.0000000000000000    0.0000000000000000    0.5000000000000000 Si
   0.5000000000000000    0.5000000000000000    0.5000000000000000 Si
   0.2500000000000000    0.2500000000000000    0.2500000000000000 Mn
   0.7500000000000000    0.7500000000000000    0.2500000000000000 Mn
   0.7500000000000000    0.2500000000000000    0.7500000000000000 Mn
   0.2500000000000000    0.7500000000000000    0.7500000000000000 Mn
   0.2500000000000000    0.2500000000000000    0.7500000000000000 Mn
   0.7500000000000000    0.7500000000000000    0.7500000000000000 Mn
   0.2500000000000000    0.7500000000000000    0.2500000000000000 Mn
   0.7500000000000000    0.2500000000000000    0.2500000000000000 Mn
