Ba4 Al2 Zn6 Cd2
1.0
   5.7793521757580741    0.0000000000000000   -0.0003778575409186
  -2.8893482180395749    5.0052550830453306   -0.0003778575409186
   0.0000000000000000    0.0000000000000000   13.1808471679687500
Al Cd Ba Zn
2 2 4 6
direct
   0.0000000000000000    0.0000000000000000    0.0000000000000000 Al
   0.0000000000000000    0.0000000000000000    0.5000000000000000 Al
   0.6666666865348816    0.3333333432674408    0.2500000000000000 Cd
   0.3333333134651184    0.6666666269302368    0.7500000000000000 Cd
   0.6666666865348816    0.3333333432674408    0.5412750244140625 Ba
   0.3333333134651184    0.6666666269302368    0.0412750244140625 Ba
   0.3333333432674408    0.6666666865348816    0.4587249755859375 Ba
   0.6666666269302368    0.3333333134651184    0.9587249755859375 Ba
   0.4714813232421875    0.5285186767578125    0.2500000000000000 Zn
   0.4714813232421875    0.9429626464843750    0.2500000000000000 Zn
   0.0570373535156250    0.5285186767578125    0.2500000000000000 Zn
   0.5285186767578125    0.4714813232421875    0.7500000000000000 Zn
   0.5285186767578125    0.0570373535156250    0.7500000000000000 Zn
   0.9429626464843750    0.4714813232421875    0.7500000000000000 Zn
