Eu2 Cl8
1.0
   6.5522479870944359    0.0000000000000000   -0.0004283899365533
  -0.0004284179458622    6.5522479730884085   -0.0004283899365533
   0.0000000000000000    0.0000000000000000    4.4824481010437012
Eu Cl
2 8
direct
   0.2500000000000000    0.7500000000000000    0.5000000000000000 Eu
   0.7500000000000000    0.2500000000000000    0.5000000000000000 Eu
   0.4993743896484375    0.7500000000000000    0.0000000000000000 Cl
   0.0006256103515625    0.7500000000000000    0.0000000000000000 Cl
   0.7500000000000000    0.4993743896484375    0.0000000000000000 Cl
   0.7500000000000000    0.0006256103515625    0.0000000000000000 Cl
   0.5006256103515625    0.2500000000000000    0.0000000000000000 Cl
   0.9993743896484375    0.2500000000000000    0.0000000000000000 Cl
   0.2500000000000000    0.5006256103515625    0.0000000000000000 Cl
   0.2500000000000000    0.9993743896484375    0.0000000000000000 Cl
