Lu1 Sn3
1.0
   4.3776502515688893    0.0000000000000000   -0.0002862134212893
  -0.0002862321347077    4.3776502422112626   -0.0002862134212893
   0.0000000000000000    0.0000000000000000    4.3776502609252930
Lu Sn
1 3
direct
   0.0000000000000000    0.0000000000000000    0.0000000000000000 Lu
   0.5000000000000000    0.5000000000000000    0.0000000000000000 Sn
   0.0000000000000000    0.5000000000000000    0.5000000000000000 Sn
   0.5000000000000000    0.0000000000000000    0.5000000000000000 Sn
