Ho4 Cu2 Se4 O8
1.0
   3.9584469710622696    0.0000000000000000   -0.0002588056572528
  -0.0002588225786764    3.9584469626007279   -0.0002588056572528
   0.0000000000000000    0.0000000000000000   19.3771476745605469
Cu O Se Ho
2 8 4 4
direct
   0.0000000000000000    0.0000000000000000    0.0000000000000000 Cu
   0.5000000000000000    0.5000000000000000    0.5000000000000000 Cu
   0.0000000000000000    0.5000000000000000    0.0000000000000000 O
   0.5000000000000000    0.0000000000000000    0.0000000000000000 O
   0.5000000000000000    0.0000000000000000    0.5000000000000000 O
   0.0000000000000000    0.5000000000000000    0.5000000000000000 O
   0.0000000000000000    0.5000000000000000    0.2500000000000000 O
   0.5000000000000000    0.0000000000000000    0.2500000000000000 O
   0.0000000000000000    0.5000000000000000    0.7500000000000000 O
   0.5000000000000000    0.0000000000000000    0.7500000000000000 O
   0.0000000000000000    0.0000000000000000    0.8735351562500000 Se
   0.0000000000000000    0.0000000000000000    0.1264648437500000 Se
   0.5000000000000000    0.5000000000000000    0.3735351562500000 Se
   0.5000000000000000    0.5000000000000000    0.6264648437500000 Se
   0.0000000000000000    0.0000000000000000    0.3038120269775391 Ho
   0.0000000000000000    0.0000000000000000    0.6961879730224609 Ho
   0.5000000000000000    0.5000000000000000    0.8038120269775391 Ho
   0.5000000000000000    0.5000000000000000    0.1961879730224609 Ho
