Er1 Ti2 Mn1 Cr1 Fe2 Co4
1.0
   3.9584469710622696    0.0000000000000000   -0.0002588056572528
  -0.0003204938848848    4.9016513614922044   -0.0003204729314856
   0.0000000000000000    0.0000000000000000    7.9277496337890625
Fe Mn Cr Er Co Ti Co
2 1 1 1 2 2 2
direct
   0.0000000000000000    0.0000000000000000    0.0000000000000000 Fe
   0.0000000000000000    0.0000000000000000    0.5000000000000000 Fe
   0.0000000000000000    0.5000000000000000    0.0000000000000000 Mn
   0.5000000000000000    0.5000000000000000    0.0000000000000000 Cr
   0.0000000000000000    0.5000000000000000    0.5000000000000000 Er
   0.0000000000000000    0.2581787109375000    0.5000000000000000 Co
   0.0000000000000000    0.7418212890625000    0.5000000000000000 Co
   0.0000000000000000    0.0000000000000000    0.2095031738281250 Ti
   0.0000000000000000    0.0000000000000000    0.7904968261718750 Ti
   0.5000000000000000    0.5000000000000000    0.7373046875000000 Co
   0.5000000000000000    0.5000000000000000    0.2626953125000000 Co
