Ba6 Sb2 Te2 O16
1.0
   7.5274420448245305    0.0000000000000000   -0.7110554185529440
  -0.0005404125722459    7.5216488483297930   -0.0004917699524767
   0.0000000000000000    0.0000000000000000    7.3120489120483398
Sb Te O Ba O
2 2 4 6 12
direct
   0.5000000000000000    0.0000000000000000    0.0000000000000000 Sb
   0.5000000000000000    0.5000000000000000    0.0000000000000000 Sb
   0.0000000000000000    0.0000000000000000    0.5000000000000000 Te
   0.0000000000000000    0.5000000000000000    0.5000000000000000 Te
   0.9293670654296875    0.2500000000000000    0.5541381835937500 O
   0.0706329345703125    0.7500000000000000    0.4458618164062500 O
   0.4563598632812500    0.2500000000000000    0.9067687988281250 O
   0.5436401367187500    0.7500000000000000    0.0932312011718750 O
   0.0960083007812500    0.2500000000000000    0.9296875000000000 Ba
   0.9039916992187500    0.7500000000000000    0.0703125000000000 Ba
   0.5156402587890625    0.2500000000000000    0.5612792968750000 Ba
   0.4843597412109375    0.7500000000000000    0.4387207031250000 Ba
   0.7266921997070312    0.2500000000000000    0.2009277343750000 Ba
   0.2733078002929688    0.7500000000000000    0.7990722656250000 Ba
   0.2402343750000000    0.4614257812500000    0.5775756835937500 O
   0.7597656250000000    0.9614257812500000    0.4224243164062500 O
   0.7597656250000000    0.5385742187500000    0.4224243164062500 O
   0.2402343750000000    0.0385742187500000    0.5775756835937500 O
   0.5952453613281250    0.5667381286621094    0.7778930664062500 O
   0.4047546386718750    0.0667381286621094    0.2221069335937500 O
   0.4047546386718750    0.4332618713378906    0.2221069335937500 O
   0.5952453613281250    0.9332618713378906    0.7778930664062500 O
   0.9795989990234375    0.5539627075195312    0.7569732666015625 O
   0.0204010009765625    0.0539627075195312    0.2430267333984375 O
   0.0204010009765625    0.4460372924804688    0.2430267333984375 O
   0.9795989990234375    0.9460372924804688    0.7569732666015625 O
