Tl3 Ge3 S6
1.0
   5.1112508664560341    0.0000000000000000   -0.0003341766732123
  -2.5553354656070670    4.4266404956872512   -0.0003341766732123
   0.0000000000000000    0.0000000000000000   13.3118495941162109
Ge Tl S
3 3 6
direct
   0.0000000000000000    0.0000000000000000    0.0000000000000000 Ge
   0.6666666865348816    0.3333333432674408    0.3333333432674408 Ge
   0.3333333432674408    0.6666666865348816    0.6666666865348816 Ge
   0.3333333432674408    0.6666666865348816    0.1666666716337204 Tl
   0.6666666865348816    0.3333333432674408    0.8333333134651184 Tl
   0.0000000000000000    0.0000000000000000    0.5000000000000000 Tl
   0.6666666865348816    0.3333333432674408    0.6033935546875000 S
   0.3333333432674408    0.6666666865348816    0.3966064453125000 S
   0.3333333730697632    0.6666666865348816    0.9367269277572632 S
   0.0000000000000000    0.0000000000000000    0.7299398183822632 S
   0.0000000000000000    0.0000000000000000    0.2700603008270264 S
   0.6666666865348816    0.3333333730697632    0.0632731318473816 S
