Li3 Ti3 O6
1.0
   3.3165497708961182    0.0000000000000000   -0.0002168380300515
  -1.6580867334531844    2.8723249758997751   -0.0002168380300515
   0.0000000000000000    0.0000000000000000   14.5563488006591797
Li Ti O
3 3 6
direct
   0.0000000000000000    0.0000000000000000    0.0000000000000000 Li
   0.6666666865348816    0.3333333432674408    0.3333333432674408 Li
   0.3333333432674408    0.6666666865348816    0.6666666865348816 Li
   0.3333333432674408    0.6666666865348816    0.1666666716337204 Ti
   0.6666666865348816    0.3333333432674408    0.8333333134651184 Ti
   0.0000000000000000    0.0000000000000000    0.5000000000000000 Ti
   0.0000000000000000    0.0000000000000000    0.2340621948242188 O
   0.0000000000000000    0.0000000000000000    0.7659378051757812 O
   0.6666666865348816    0.3333333432674408    0.5673955678939819 O
   0.6666666865348816    0.3333333432674408    0.0992711484432220 O
   0.3333333432674408    0.6666666865348816    0.9007288813591003 O
   0.3333333432674408    0.6666666865348816    0.4326044917106628 O
