Sm4 In12 Pt4
1.0
   4.4300508404461514    0.0000000000000000   -0.0002896394034848
  -0.0012327110269322   18.8531512408157376   -0.0012326304341740
   0.0000000000000000    0.0000000000000000    6.6963486671447754
In Sm Pt In
4 4 4 8
direct
   0.0000000000000000    0.7212047576904297    0.2500000000000000 In
   0.0000000000000000    0.2787952423095703    0.7500000000000000 In
   0.5000000000000000    0.2212047576904297    0.2500000000000000 In
   0.5000000000000000    0.7787952423095703    0.7500000000000000 In
   0.5000000000000000    0.9974365234375000    0.2500000000000000 Sm
   0.5000000000000000    0.0025634765625000    0.7500000000000000 Sm
   0.0000000000000000    0.4974365234375000    0.2500000000000000 Sm
   0.0000000000000000    0.5025634765625000    0.7500000000000000 Sm
   0.0000000000000000    0.3210449218750000    0.2500000000000000 Pt
   0.0000000000000000    0.6789550781250000    0.7500000000000000 Pt
   0.5000000000000000    0.8210449218750000    0.2500000000000000 Pt
   0.5000000000000000    0.1789550781250000    0.7500000000000000 Pt
   0.0000000000000000    0.1115112304687500    0.5074462890625000 In
   0.0000000000000000    0.8884887695312500    0.0074462890625000 In
   0.0000000000000000    0.1115112304687500    0.9925537109375000 In
   0.0000000000000000    0.8884887695312500    0.4925537109375000 In
   0.5000000000000000    0.6115112304687500    0.5074462890625000 In
   0.5000000000000000    0.3884887695312500    0.0074462890625000 In
   0.5000000000000000    0.6115112304687500    0.9925537109375000 In
   0.5000000000000000    0.3884887695312500    0.4925537109375000 In
