K2 I2 O12
1.0
   5.7138495323128682    0.0000000000000000   -0.0003735749384706
  -0.0003735993638246    5.7138495200989938   -0.0003735749384706
   0.0000000000000000    0.0000000000000000    8.4386482238769531
I K O
2 2 12
direct
   0.0000000000000000    0.0000000000000000    0.0000000000000000 I
   0.5000000000000000    0.5000000000000000    0.5000000000000000 I
   0.0000000000000000    0.0000000000000000    0.5000000000000000 K
   0.5000000000000000    0.5000000000000000    0.0000000000000000 K
   0.0000000000000000    0.5000000000000000    0.2500000000000000 O
   0.5000000000000000    0.0000000000000000    0.7500000000000000 O
   0.0000000000000000    0.5000000000000000    0.7500000000000000 O
   0.5000000000000000    0.0000000000000000    0.2500000000000000 O
   0.3208084106445312    0.3208084106445312    0.3845825195312500 O
   0.6791915893554688    0.6791915893554688    0.3845825195312500 O
   0.3208084106445312    0.6791915893554688    0.6154174804687500 O
   0.6791915893554688    0.3208084106445312    0.6154174804687500 O
   0.8208084106445312    0.8208084106445312    0.8845825195312500 O
   0.1791915893554688    0.1791915893554688    0.8845825195312500 O
   0.8208084106445312    0.1791915893554688    0.1154174804687500 O
   0.1791915893554688    0.8208084106445312    0.1154174804687500 O
