Gd4 Mo4 O16
1.0
   5.4125499609658725    0.0000000000000000   -0.0003538757902535
  -0.0003538989276232    5.4125499493960536   -0.0003538757902535
   0.0000000000000000    0.0000000000000000   11.5826473236083984
Mo Gd O
4 4 16
direct
   0.0000000000000000    0.2500000000000000    0.1250000000000000 Mo
   0.5000000000000000    0.7500000000000000    0.6250000000000000 Mo
   0.5000000000000000    0.2500000000000000    0.3750000000000000 Mo
   0.0000000000000000    0.7500000000000000    0.8750000000000000 Mo
   0.0000000000000000    0.2500000000000000    0.6250000000000000 Gd
   0.5000000000000000    0.7500000000000000    0.1250000000000000 Gd
   0.5000000000000000    0.2500000000000000    0.8750000000000000 Gd
   0.0000000000000000    0.7500000000000000    0.3750000000000000 Gd
   0.7486572265625000    0.4022521972656250    0.0444488525390625 O
   0.7513427734375000    0.5977478027343750    0.5444488525390625 O
   0.3477478027343750    0.9986572265625000    0.2944488525390625 O
   0.1522521972656250    0.0013427734375000    0.7944488525390625 O
   0.2513427734375000    0.5977478027343750    0.9555511474609375 O
   0.2486572265625000    0.4022521972656250    0.4555511474609375 O
   0.6522521972656250    0.0013427734375000    0.7055511474609375 O
   0.8477478027343750    0.9986572265625000    0.2055511474609375 O
   0.2486572265625000    0.9022521972656250    0.5444488525390625 O
   0.2513427734375000    0.0977478027343750    0.0444488525390625 O
   0.8477478027343750    0.4986572265625000    0.7944488525390625 O
   0.6522521972656250    0.5013427734375000    0.2944488525390625 O
   0.7513427734375000    0.0977478027343750    0.4555511474609375 O
   0.7486572265625000    0.9022521972656250    0.9555511474609375 O
   0.1522521972656250    0.5013427734375000    0.2055511474609375 O
   0.3477478027343750    0.4986572265625000    0.7055511474609375 O
