Ca2 Eu2 In4 Sn4
1.0
   4.5479512117456746    0.0000000000000000   -0.0002973478010730
  -2.2737175949421431    3.9387902359569074   -0.0002973478010730
   0.0000000000000000    0.0000000000000000   17.8444480895996094
Eu Ca In Sn
2 2 4 4
direct
   0.0000000000000000    0.0000000000000000    0.0000000000000000 Eu
   0.0000000000000000    0.0000000000000000    0.5000000000000000 Eu
   0.0000000000000000    0.0000000000000000    0.2500000000000000 Ca
   0.0000000000000000    0.0000000000000000    0.7500000000000000 Ca
   0.6666666865348816    0.3333333432674408    0.1632690429687500 In
   0.3333333134651184    0.6666666269302368    0.6632690429687500 In
   0.3333333432674408    0.6666666865348816    0.8367309570312500 In
   0.6666666269302368    0.3333333134651184    0.3367309570312500 In
   0.3333333432674408    0.6666666865348816    0.4019165039062500 Sn
   0.6666666269302368    0.3333333134651184    0.9019165039062500 Sn
   0.6666666865348816    0.3333333432674408    0.5980834960937500 Sn
   0.3333333134651184    0.6666666269302368    0.0980834960937500 Sn
