Li1 Mn2 F6
1.0
   5.1243533978611353    0.0000000000000000   -0.0003350333246407
  -2.5618859879867091    4.4379880498631730   -0.0003350333246407
   0.0000000000000000    0.0000000000000000    5.0326538085937500
Li Mn F
1 2 6
direct
   0.0000000000000000    0.0000000000000000    0.0000000000000000 Li
   0.6666666865348816    0.3333333432674408    0.0000000000000000 Mn
   0.3333333134651184    0.6666666269302368    0.0000000000000000 Mn
   0.3500964641571045    0.0000000000000000    0.2000427246093750 F
   0.0000000000000000    0.3500964641571045    0.2000427246093750 F
   0.6499035358428955    0.6499035358428955    0.2000427246093750 F
   0.0000000000000000    0.6499035358428955    0.7999572753906250 F
   0.6499035358428955    0.0000000000000000    0.7999572753906250 F
   0.3500964641571045    0.3500964641571045    0.7999572753906250 F
