Al1 Fe1 Te1 Pt4
1.0
   3.8405508912971604    0.0000000000000000   -0.0002510975402477
  -0.0002511139576936    3.8405508830876327   -0.0002510975402477
   0.0000000000000000    0.0000000000000000    7.8491525650024414
Fe Al Te Pt
1 1 1 4
direct
   0.0000000000000000    0.0000000000000000    0.0000000000000000 Fe
   0.0000000000000000    0.0000000000000000    0.5000000000000000 Al
   0.5000000000000000    0.5000000000000000    0.5000000000000000 Te
   0.0000000000000000    0.5000000000000000    0.7613525390625000 Pt
   0.5000000000000000    0.0000000000000000    0.7613525390625000 Pt
   0.0000000000000000    0.5000000000000000    0.2386474609375000 Pt
   0.5000000000000000    0.0000000000000000    0.2386474609375000 Pt
