Te1 Au8
1.0
   6.6046490528088544    0.0000000000000000   -0.0004318159499248
  -0.0004318441832358    6.6046490386908143   -0.0004318159499248
   0.0000000000000000    0.0000000000000000    4.3514499664306641
Te Au
1 8
direct
   0.0000000000000000    0.0000000000000000    0.0000000000000000 Te
   0.7460327148437500    0.4608154296875000    0.5000000000000000 Au
   0.2539672851562500    0.5391845703125000    0.5000000000000000 Au
   0.5391845703125000    0.7460327148437500    0.5000000000000000 Au
   0.4608154296875000    0.2539672851562500    0.5000000000000000 Au
   0.7436065673828125    0.0412292480468750    0.5000000000000000 Au
   0.2563934326171875    0.9587707519531250    0.5000000000000000 Au
   0.9587707519531250    0.7436065673828125    0.5000000000000000 Au
   0.0412292480468750    0.2563934326171875    0.5000000000000000 Au
