Tl8 S4
1.0
   3.1855516365630652    0.0000000000000000   -0.0002082732927939
  -0.0011410612271385   17.4514540879943816   -0.0011409866263037
   0.0000000000000000    0.0000000000000000    5.2422494888305664
S Tl
4 8
direct
   0.0000000000000000    0.6894531250000000    0.2500000000000000 S
   0.0000000000000000    0.3105468750000000    0.7500000000000000 S
   0.5000000000000000    0.1894531250000000    0.2500000000000000 S
   0.5000000000000000    0.8105468750000000    0.7500000000000000 S
   0.5000000000000000    0.8463134765625000    0.2500000000000000 Tl
   0.5000000000000000    0.1536865234375000    0.7500000000000000 Tl
   0.0000000000000000    0.3463134765625000    0.2500000000000000 Tl
   0.0000000000000000    0.6536865234375000    0.7500000000000000 Tl
   0.0000000000000000    0.0572204589843750    0.2500000000000000 Tl
   0.0000000000000000    0.9427795410156250    0.7500000000000000 Tl
   0.5000000000000000    0.5572204589843750    0.2500000000000000 Tl
   0.5000000000000000    0.4427795410156250    0.7500000000000000 Tl
