Tb2 Cu4 Si4
1.0
   4.2073492913921040    0.0000000000000000   -0.0002750790415056
  -0.0002750970269278    4.2073492823985115   -0.0002750790415056
   0.0000000000000000    0.0000000000000000    9.7486476898193359
Tb Cu Si
2 4 4
direct
   0.0000000000000000    0.0000000000000000    0.0000000000000000 Tb
   0.5000000000000000    0.5000000000000000    0.5000000000000000 Tb
   0.0000000000000000    0.5000000000000000    0.2500000000000000 Cu
   0.5000000000000000    0.0000000000000000    0.2500000000000000 Cu
   0.0000000000000000    0.5000000000000000    0.7500000000000000 Cu
   0.5000000000000000    0.0000000000000000    0.7500000000000000 Cu
   0.0000000000000000    0.0000000000000000    0.6206054687500000 Si
   0.0000000000000000    0.0000000000000000    0.3793945312500000 Si
   0.5000000000000000    0.5000000000000000    0.1206054687500000 Si
   0.5000000000000000    0.5000000000000000    0.8793945312500000 Si
