Ce2 Pr4 Nd4 Ge6
1.0
   8.1259346848181373    0.0000000000000000   -3.3577747220622345
  -0.0009683852395342    9.9058493882810676   -0.0006476504276988
   0.0000000000000000    0.0000000000000000    6.4736504554748535
Ge Ce Ge Pr Nd
2 2 4 4 4
direct
   0.5000000000000000    0.8818054199218750    0.0000000000000000 Ge
   0.0000000000000000    0.3818054199218750    0.0000000000000000 Ge
   0.0000000000000000    0.0295562744140625    0.0000000000000000 Ce
   0.5000000000000000    0.5295562744140625    0.0000000000000000 Ce
   0.0000000000000000    0.1434326171875000    0.5000000000000000 Ge
   0.5000000000000000    0.6434326171875000    0.5000000000000000 Ge
   0.0000000000000000    0.6878662109375000    0.5000000000000000 Ge
   0.5000000000000000    0.1878662109375000    0.5000000000000000 Ge
   0.7982864379882812    0.6920166015625000    0.9837265014648438 Pr
   0.2017135620117188    0.6920166015625000    0.0162734985351562 Pr
   0.2982864379882812    0.1920166015625000    0.9837265014648438 Pr
   0.7017135620117188    0.1920166015625000    0.0162734985351562 Pr
   0.2217254638671875    0.4166870117187500    0.4781036376953125 Nd
   0.7782745361328125    0.4166870117187500    0.5218963623046875 Nd
   0.7217254638671875    0.9166870117187500    0.4781036376953125 Nd
   0.2782745361328125    0.9166870117187500    0.5218963623046875 Nd
