Ca2 P2 H12 O12
1.0
   5.5435523868333405    0.0000000000000000   -0.0003624408080941
  -2.7714617007926101    4.8010387528747733   -0.0003624408080941
   0.0000000000000000    0.0000000000000000   10.3119468688964844
Ca P H O
2 2 12 12
direct
   0.0000000000000000    0.0000000000000000    0.2500000000000000 Ca
   0.0000000000000000    0.0000000000000000    0.7500000000000000 Ca
   0.0000000000000000    0.0000000000000000    0.0000000000000000 P
   0.0000000000000000    0.0000000000000000    0.5000000000000000 P
   0.4655361175537109    0.3007202148437500    0.4320068359375000 H
   0.6992797851562500    0.1648159027099609    0.4320068359375000 H
   0.8351840972900391    0.5344638824462891    0.4320068359375000 H
   0.5344638824462891    0.6992797851562500    0.9320068359375000 H
   0.3007202148437500    0.8351840972900391    0.9320068359375000 H
   0.1648159027099609    0.4655361175537109    0.9320068359375000 H
   0.5344638824462891    0.6992797851562500    0.5679931640625000 H
   0.3007202148437500    0.8351840972900391    0.5679931640625000 H
   0.1648159027099609    0.4655361175537109    0.5679931640625000 H
   0.4655361175537109    0.3007202148437500    0.0679931640625000 H
   0.6992797851562500    0.1648159027099609    0.0679931640625000 H
   0.8351840972900391    0.5344638824462891    0.0679931640625000 H
   0.1884765625000000    0.3072586059570312    0.9063720703125000 O
   0.6927413940429688    0.8812179565429688    0.9063720703125000 O
   0.1187820434570312    0.8115234375000000    0.9063720703125000 O
   0.8115234375000000    0.6927413940429688    0.4063720703125000 O
   0.3072586059570312    0.1187820434570312    0.4063720703125000 O
   0.8812179565429688    0.1884765625000000    0.4063720703125000 O
   0.8115234375000000    0.6927413940429688    0.0936279296875000 O
   0.3072586059570312    0.1187820434570312    0.0936279296875000 O
   0.8812179565429688    0.1884765625000000    0.0936279296875000 O
   0.1884765625000000    0.3072586059570312    0.5936279296875000 O
   0.6927413940429688    0.8812179565429688    0.5936279296875000 O
   0.1187820434570312    0.8115234375000000    0.5936279296875000 O
