U2 Bi8
1.0
   3.9322504913208967    0.0000000000000000   -0.0002570929155622
  -0.0003710298338896    5.6745509858736805   -0.0003710055765275
   0.0000000000000000    0.0000000000000000   12.2900476455688477
Bi U
8 2
direct
   0.0000000000000000    0.5000000000000000    0.4357147216796875 Bi
   0.5000000000000000    0.0000000000000000    0.9357147216796875 Bi
   0.0000000000000000    0.5000000000000000    0.0274047851562500 Bi
   0.5000000000000000    0.0000000000000000    0.5274047851562500 Bi
   0.0000000000000000    0.5000000000000000    0.8168334960937500 Bi
   0.5000000000000000    0.0000000000000000    0.3168334960937500 Bi
   0.5000000000000000    0.0000000000000000    0.7249755859375000 Bi
   0.0000000000000000    0.5000000000000000    0.2249755859375000 Bi
   0.5000000000000000    0.0000000000000000    0.1194391250610352 U
   0.0000000000000000    0.5000000000000000    0.6194391250610352 U
