Zr4 Ag12
1.0
   6.8404488417335880    0.0000000000000000   -0.0004472326827492
  -0.0004472619240486    6.8404488271115049   -0.0004472326827492
   0.0000000000000000    0.0000000000000000    6.8404488563537598
Zr Ag
4 12
direct
   0.0000000000000000    0.0000000000000000    0.0000000000000000 Zr
   0.0000000000000000    0.5000000000000000    0.5000000000000000 Zr
   0.5000000000000000    0.0000000000000000    0.5000000000000000 Zr
   0.5000000000000000    0.5000000000000000    0.0000000000000000 Zr
   0.5000000000000000    0.0000000000000000    0.0000000000000000 Ag
   0.0000000000000000    0.5000000000000000    0.0000000000000000 Ag
   0.0000000000000000    0.0000000000000000    0.5000000000000000 Ag
   0.5000000000000000    0.5000000000000000    0.5000000000000000 Ag
   0.2500000000000000    0.2500000000000000    0.2500000000000000 Ag
   0.7500000000000000    0.7500000000000000    0.2500000000000000 Ag
   0.7500000000000000    0.2500000000000000    0.7500000000000000 Ag
   0.2500000000000000    0.7500000000000000    0.7500000000000000 Ag
   0.2500000000000000    0.2500000000000000    0.7500000000000000 Ag
   0.7500000000000000    0.7500000000000000    0.7500000000000000 Ag
   0.2500000000000000    0.7500000000000000    0.2500000000000000 Ag
   0.7500000000000000    0.2500000000000000    0.2500000000000000 Ag
