Sn4 Mo2
1.0
   5.4505580010494992    0.0000000000000000   -0.1188125131974379
  -0.0002023582648663    3.0283489094960436   -0.0001979952838555
   0.0000000000000000    0.0000000000000000    5.0719523429870605
Mo Sn
2 4
direct
   0.0000000000000000    0.0000000000000000    0.0000000000000000 Mo
   0.5000000000000000    0.5000000000000000    0.0000000000000000 Mo
   0.6686096191406250    0.0000000000000000    0.3217773437500000 Sn
   0.3313903808593750    0.0000000000000000    0.6782226562500000 Sn
   0.1686096191406250    0.5000000000000000    0.3217773437500000 Sn
   0.8313903808593750    0.5000000000000000    0.6782226562500000 Sn
