Dy4 Co4 O12
1.0
   5.3077525979086078    0.0000000000000000   -0.0003470240752697
  -0.0004806669979649    7.3513478918525097   -0.0004806355726930
   0.0000000000000000    0.0000000000000000    5.2029504776000977
Co O Dy O
4 4 4 8
direct
   0.0000000000000000    0.0000000000000000    0.0000000000000000 Co
   0.5000000000000000    0.0000000000000000    0.5000000000000000 Co
   0.0000000000000000    0.5000000000000000    0.0000000000000000 Co
   0.5000000000000000    0.5000000000000000    0.5000000000000000 Co
   0.9765014648437500    0.2500000000000000    0.1051025390625000 O
   0.5234985351562500    0.7500000000000000    0.6051025390625000 O
   0.0234985351562500    0.7500000000000000    0.8948974609375000 O
   0.4765014648437500    0.2500000000000000    0.3948974609375000 O
   0.0662231445312500    0.2500000000000000    0.5144042968750000 Dy
   0.4337768554687500    0.7500000000000000    0.0144042968750000 Dy
   0.9337768554687500    0.7500000000000000    0.4855957031250000 Dy
   0.5662231445312500    0.2500000000000000    0.9855957031250000 Dy
   0.1984863281250000    0.9471588134765625    0.3099975585937500 O
   0.3015136718750000    0.0528411865234375    0.8099975585937500 O
   0.8015136718750000    0.4471588134765625    0.6900024414062500 O
   0.6984863281250000    0.5528411865234375    0.1900024414062500 O
   0.8015136718750000    0.0528411865234375    0.6900024414062500 O
   0.6984863281250000    0.9471588134765625    0.1900024414062500 O
   0.1984863281250000    0.5528411865234375    0.3099975585937500 O
   0.3015136718750000    0.4471588134765625    0.8099975585937500 O
