Ca2 Mg2 Sn1
1.0
   4.4431495571539950    0.0000000000000000   -0.0002904958055060
  -2.2213227131745601    3.8480259083291726   -0.0002904958055060
   0.0000000000000000    0.0000000000000000    7.2334518432617188
Ca Mg Sn
2 2 1
direct
   0.0000000000000000    0.0000000000000000    0.0051422119140625 Ca
   0.0000000000000000    0.0000000000000000    0.4677734375000000 Ca
   0.3333333432674408    0.6666666865348816    0.7841796875000000 Mg
   0.3333333432674408    0.6666666865348816    0.2340087890625000 Mg
   0.6666666865348816    0.3333333432674408    0.6823730468750000 Sn
