Rb12 Pr4 Cl24
1.0
  12.0411452989713492    0.0000000000000000   -0.0007872573627884
  -0.0007873088358339   12.0411452732323028   -0.0007872573627884
   0.0000000000000000    0.0000000000000000   12.0411453247070312
Pr Rb Cl
4 12 24
direct
   0.0000000000000000    0.0000000000000000    0.0000000000000000 Pr
   0.0000000000000000    0.5000000000000000    0.5000000000000000 Pr
   0.5000000000000000    0.0000000000000000    0.5000000000000000 Pr
   0.5000000000000000    0.5000000000000000    0.0000000000000000 Pr
   0.5000000000000000    0.0000000000000000    0.0000000000000000 Rb
   0.0000000000000000    0.5000000000000000    0.0000000000000000 Rb
   0.0000000000000000    0.0000000000000000    0.5000000000000000 Rb
   0.5000000000000000    0.5000000000000000    0.5000000000000000 Rb
   0.2500000000000000    0.2500000000000000    0.2500000000000000 Rb
   0.7500000000000000    0.7500000000000000    0.2500000000000000 Rb
   0.7500000000000000    0.2500000000000000    0.7500000000000000 Rb
   0.2500000000000000    0.7500000000000000    0.7500000000000000 Rb
   0.2500000000000000    0.2500000000000000    0.7500000000000000 Rb
   0.7500000000000000    0.7500000000000000    0.7500000000000000 Rb
   0.2500000000000000    0.7500000000000000    0.2500000000000000 Rb
   0.7500000000000000    0.2500000000000000    0.2500000000000000 Rb
   0.7652969360351562    0.0000000000000000    0.0000000000000000 Cl
   0.2347030639648438    0.0000000000000000    0.0000000000000000 Cl
   0.0000000000000000    0.7652969360351562    0.0000000000000000 Cl
   0.0000000000000000    0.2347030639648438    0.0000000000000000 Cl
   0.0000000000000000    0.0000000000000000    0.7652969360351562 Cl
   0.0000000000000000    0.0000000000000000    0.2347030639648438 Cl
   0.7652969360351562    0.5000000000000000    0.5000000000000000 Cl
   0.2347030639648438    0.5000000000000000    0.5000000000000000 Cl
   0.0000000000000000    0.2652969360351562    0.5000000000000000 Cl
   0.0000000000000000    0.7347030639648438    0.5000000000000000 Cl
   0.0000000000000000    0.5000000000000000    0.2652969360351562 Cl
   0.0000000000000000    0.5000000000000000    0.7347030639648438 Cl
   0.2652969360351562    0.0000000000000000    0.5000000000000000 Cl
   0.7347030639648438    0.0000000000000000    0.5000000000000000 Cl
   0.5000000000000000    0.7652969360351562    0.5000000000000000 Cl
   0.5000000000000000    0.2347030639648438    0.5000000000000000 Cl
   0.5000000000000000    0.0000000000000000    0.2652969360351562 Cl
   0.5000000000000000    0.0000000000000000    0.7347030639648438 Cl
   0.2652969360351562    0.5000000000000000    0.0000000000000000 Cl
   0.7347030639648438    0.5000000000000000    0.0000000000000000 Cl
   0.5000000000000000    0.2652969360351562    0.0000000000000000 Cl
   0.5000000000000000    0.7347030639648438    0.0000000000000000 Cl
   0.5000000000000000    0.5000000000000000    0.7652969360351562 Cl
   0.5000000000000000    0.5000000000000000    0.2347030639648438 Cl
