Eu4 U4 O24
1.0
   8.0980510538589314    0.0000000000000000   -0.0005294554760444
  -0.0005294900932955    8.0980510365486094   -0.0005294554760444
   0.0000000000000000    0.0000000000000000    8.0980510711669922
U Eu O
4 4 24
direct
   0.0000000000000000    0.0000000000000000    0.0000000000000000 U
   0.0000000000000000    0.5000000000000000    0.5000000000000000 U
   0.5000000000000000    0.0000000000000000    0.5000000000000000 U
   0.5000000000000000    0.5000000000000000    0.0000000000000000 U
   0.2500000000000000    0.2500000000000000    0.7500000000000000 Eu
   0.7500000000000000    0.7500000000000000    0.7500000000000000 Eu
   0.7500000000000000    0.2500000000000000    0.2500000000000000 Eu
   0.2500000000000000    0.7500000000000000    0.2500000000000000 Eu
   0.7616271972656250    0.0000000000000000    0.0000000000000000 O
   0.2383728027343750    0.0000000000000000    0.0000000000000000 O
   0.0000000000000000    0.7616271972656250    0.0000000000000000 O
   0.0000000000000000    0.2383728027343750    0.0000000000000000 O
   0.0000000000000000    0.0000000000000000    0.7616271972656250 O
   0.0000000000000000    0.0000000000000000    0.2383728027343750 O
   0.7616271972656250    0.5000000000000000    0.5000000000000000 O
   0.2383728027343750    0.5000000000000000    0.5000000000000000 O
   0.0000000000000000    0.2616271972656250    0.5000000000000000 O
   0.0000000000000000    0.7383728027343750    0.5000000000000000 O
   0.0000000000000000    0.5000000000000000    0.2616271972656250 O
   0.0000000000000000    0.5000000000000000    0.7383728027343750 O
   0.2616271972656250    0.0000000000000000    0.5000000000000000 O
   0.7383728027343750    0.0000000000000000    0.5000000000000000 O
   0.5000000000000000    0.7616271972656250    0.5000000000000000 O
   0.5000000000000000    0.2383728027343750    0.5000000000000000 O
   0.5000000000000000    0.0000000000000000    0.2616271972656250 O
   0.5000000000000000    0.0000000000000000    0.7383728027343750 O
   0.2616271972656250    0.5000000000000000    0.0000000000000000 O
   0.7383728027343750    0.5000000000000000    0.0000000000000000 O
   0.5000000000000000    0.2616271972656250    0.0000000000000000 O
   0.5000000000000000    0.7383728027343750    0.0000000000000000 O
   0.5000000000000000    0.5000000000000000    0.7616271972656250 O
   0.5000000000000000    0.5000000000000000    0.2383728027343750 O
