K3 Mn12 O24
1.0
   6.0282506813906513    0.0000000000000000   -0.0003941306757643
  -3.0137833505339655    5.2208156636421403   -0.0003941306757643
   0.0000000000000000    0.0000000000000000   15.7091522216796875
Mn K O Mn O
3 3 6 9 18
direct
   0.0000000000000000    0.0000000000000000    0.0000000000000000 Mn
   0.6666666865348816    0.3333333432674408    0.3333333432674408 Mn
   0.3333333432674408    0.6666666865348816    0.6666666865348816 Mn
   0.3333333432674408    0.6666666865348816    0.1666666716337204 K
   0.6666666865348816    0.3333333432674408    0.8333333134651184 K
   0.0000000000000000    0.0000000000000000    0.5000000000000000 K
   0.3333333432674408    0.6666666865348816    0.9478759765625000 O
   0.6666666865348816    0.3333333432674408    0.0521240234375000 O
   0.0000000000000000    0.0000000000000000    0.2812093496322632 O
   0.3333333730697632    0.6666666865348816    0.3854573965072632 O
   0.6666666865348816    0.3333333730697632    0.6145427227020264 O
   0.0000000000000000    0.0000000000000000    0.7187907099723816 O
   0.5000000000000000    0.5000000000000000    0.0000000000000000 Mn
   0.5000000000000000    0.0000000000000000    0.0000000000000000 Mn
   0.0000000000000000    0.5000000000000000    0.0000000000000000 Mn
   0.1666667461395264    0.8333333730697632    0.3333333432674408 Mn
   0.1666666865348816    0.3333333432674408    0.3333333432674408 Mn
   0.6666666865348816    0.8333333730697632    0.3333333432674408 Mn
   0.8333333730697632    0.1666667461395264    0.6666666865348816 Mn
   0.8333333730697632    0.6666666865348816    0.6666666865348816 Mn
   0.3333333432674408    0.1666666865348816    0.6666666865348816 Mn
   0.1688232421875000    0.8311767578125000    0.6103515625000000 O
   0.1688232421875000    0.3376464843750000    0.6103515625000000 O
   0.6623535156250000    0.8311767578125000    0.6103515625000000 O
   0.8311767578125000    0.1688232421875000    0.3896484375000000 O
   0.3376464843750000    0.1688232421875000    0.3896484375000000 O
   0.8311767578125000    0.6623535156250000    0.3896484375000000 O
   0.8354899287223816    0.1645101308822632    0.9436849355697632 O
   0.8354899287223816    0.6709798574447632    0.9436849355697632 O
   0.3290202617645264    0.1645101010799408    0.9436849355697632 O
   0.4978435039520264    0.5021566152572632    0.7229818105697632 O
   0.0043131709098816    0.5021566152572632    0.7229818105697632 O
   0.4978434443473816    0.9956868886947632    0.7229818105697632 O
   0.5021566152572632    0.4978435039520264    0.2770183086395264 O
   0.5021566152572632    0.0043131709098816    0.2770183086395264 O
   0.9956868886947632    0.4978434443473816    0.2770183086395264 O
   0.1645101308822632    0.8354899287223816    0.0563151240348816 O
   0.6709798574447632    0.8354899287223816    0.0563151240348816 O
   0.1645101010799408    0.3290202617645264    0.0563151240348816 O
