Ce4 Ni12 P16
1.0
   3.6309473436952220    0.0000000000000000   -0.0002373935335259
  -0.0007384859899268   11.2944459432334536   -0.0007384377088443
   0.0000000000000000    0.0000000000000000   11.4254484176635742
P Ni Ce P Ni
8 4 4 8 8
direct
   0.0000000000000000    0.8103027343750000    0.2500000000000000 P
   0.0000000000000000    0.1896972656250000    0.7500000000000000 P
   0.5000000000000000    0.3103027343750000    0.2500000000000000 P
   0.5000000000000000    0.6896972656250000    0.7500000000000000 P
   0.5000000000000000    0.5906372070312500    0.2500000000000000 P
   0.5000000000000000    0.4093627929687500    0.7500000000000000 P
   0.0000000000000000    0.0906372070312500    0.2500000000000000 P
   0.0000000000000000    0.9093627929687500    0.7500000000000000 P
   0.0000000000000000    0.6661987304687500    0.2500000000000000 Ni
   0.0000000000000000    0.3338012695312500    0.7500000000000000 Ni
   0.5000000000000000    0.1661987304687500    0.2500000000000000 Ni
   0.5000000000000000    0.8338012695312500    0.7500000000000000 Ni
   0.5000000000000000    0.9343490600585938    0.2500000000000000 Ce
   0.5000000000000000    0.0656509399414062    0.7500000000000000 Ce
   0.0000000000000000    0.4343490600585938    0.2500000000000000 Ce
   0.0000000000000000    0.5656509399414062    0.7500000000000000 Ce
   0.5000000000000000    0.1075744628906250    0.4899902343750000 P
   0.5000000000000000    0.8924255371093750    0.9899902343750000 P
   0.5000000000000000    0.1075744628906250    0.0100097656250000 P
   0.5000000000000000    0.8924255371093750    0.5100097656250000 P
   0.0000000000000000    0.6075744628906250    0.4899902343750000 P
   0.0000000000000000    0.3924255371093750    0.9899902343750000 P
   0.0000000000000000    0.6075744628906250    0.0100097656250000 P
   0.0000000000000000    0.3924255371093750    0.5100097656250000 P
   0.5000000000000000    0.2927246093750000    0.5849304199218750 Ni
   0.5000000000000000    0.7072753906250000    0.0849304199218750 Ni
   0.5000000000000000    0.2927246093750000    0.9150695800781250 Ni
   0.5000000000000000    0.7072753906250000    0.4150695800781250 Ni
   0.0000000000000000    0.7927246093750000    0.5849304199218750 Ni
   0.0000000000000000    0.2072753906250000    0.0849304199218750 Ni
   0.0000000000000000    0.7927246093750000    0.9150695800781250 Ni
   0.0000000000000000    0.2072753906250000    0.4150695800781250 Ni
