Li4 Pt4 F16
1.0
   9.2176602334733264    0.0000000000000000   -3.8371775155844889
  -0.0004754030303731    4.8492502829521129   -0.0003170469181142
   0.0000000000000000    0.0000000000000000    6.9190464019775391
Pt Li F
4 4 16
direct
   0.2500000000000000    0.2500000000000000    0.5000000000000000 Pt
   0.7500000000000000    0.2500000000000000    0.0000000000000000 Pt
   0.7500000000000000    0.7500000000000000    0.5000000000000000 Pt
   0.2500000000000000    0.7500000000000000    0.0000000000000000 Pt
   0.0000000000000000    0.7181739807128906    0.2500000000000000 Li
   0.0000000000000000    0.2818260192871094    0.7500000000000000 Li
   0.5000000000000000    0.2181739807128906    0.2500000000000000 Li
   0.5000000000000000    0.7818260192871094    0.7500000000000000 Li
   0.1462516784667969    0.5558166503906250    0.1683044433593750 F
   0.8537483215332031    0.5558166503906250    0.3316955566406250 F
   0.8537483215332031    0.4441833496093750    0.8316955566406250 F
   0.1462516784667969    0.4441833496093750    0.6683044433593750 F
   0.6462516784667969    0.0558166503906250    0.1683044433593750 F
   0.3537483215332031    0.0558166503906250    0.3316955566406250 F
   0.3537483215332031    0.9441833496093750    0.8316955566406250 F
   0.6462516784667969    0.9441833496093750    0.6683044433593750 F
   0.8957672119140625    0.9678497314453125    0.0487365722656250 F
   0.1042327880859375    0.9678497314453125    0.4512634277343750 F
   0.1042327880859375    0.0321502685546875    0.9512634277343750 F
   0.8957672119140625    0.0321502685546875    0.5487365722656250 F
   0.3957672119140625    0.4678497314453125    0.0487365722656250 F
   0.6042327880859375    0.4678497314453125    0.4512634277343750 F
   0.6042327880859375    0.5321502685546875    0.9512634277343750 F
   0.3957672119140625    0.5321502685546875    0.5487365722656250 F
