Zr1 Rh3
1.0
   4.2728524116744673    0.0000000000000000   -0.0002793616751296
  -0.0002793799405620    4.2728524025408552   -0.0002793616751296
   0.0000000000000000    0.0000000000000000    4.2728524208068848
Zr Rh
1 3
direct
   0.0000000000000000    0.0000000000000000    0.0000000000000000 Zr
   0.5000000000000000    0.5000000000000000    0.0000000000000000 Rh
   0.0000000000000000    0.5000000000000000    0.5000000000000000 Rh
   0.5000000000000000    0.0000000000000000    0.5000000000000000 Rh
