Cs8 Mg4 Pd4 Cl24
1.0
   9.8796500948509038    0.0000000000000000   -0.0006459374989528
  -0.0006459797321180    9.8796500737322503   -0.0006459374989528
   0.0000000000000000    0.0000000000000000    9.8796501159667969
Mg Pd Cs Cl
4 4 8 24
direct
   0.0000000000000000    0.0000000000000000    0.0000000000000000 Mg
   0.0000000000000000    0.5000000000000000    0.5000000000000000 Mg
   0.5000000000000000    0.0000000000000000    0.5000000000000000 Mg
   0.5000000000000000    0.5000000000000000    0.0000000000000000 Mg
   0.5000000000000000    0.0000000000000000    0.0000000000000000 Pd
   0.0000000000000000    0.5000000000000000    0.0000000000000000 Pd
   0.0000000000000000    0.0000000000000000    0.5000000000000000 Pd
   0.5000000000000000    0.5000000000000000    0.5000000000000000 Pd
   0.2500000000000000    0.2500000000000000    0.2500000000000000 Cs
   0.7500000000000000    0.7500000000000000    0.2500000000000000 Cs
   0.7500000000000000    0.2500000000000000    0.7500000000000000 Cs
   0.2500000000000000    0.7500000000000000    0.7500000000000000 Cs
   0.2500000000000000    0.2500000000000000    0.7500000000000000 Cs
   0.7500000000000000    0.7500000000000000    0.7500000000000000 Cs
   0.2500000000000000    0.7500000000000000    0.2500000000000000 Cs
   0.7500000000000000    0.2500000000000000    0.2500000000000000 Cs
   0.2515902519226074    0.0000000000000000    0.0000000000000000 Cl
   0.7484097480773926    0.0000000000000000    0.0000000000000000 Cl
   0.0000000000000000    0.2515902519226074    0.0000000000000000 Cl
   0.0000000000000000    0.7484097480773926    0.0000000000000000 Cl
   0.0000000000000000    0.0000000000000000    0.2515902519226074 Cl
   0.0000000000000000    0.0000000000000000    0.7484097480773926 Cl
   0.2515902519226074    0.5000000000000000    0.5000000000000000 Cl
   0.7484097480773926    0.5000000000000000    0.5000000000000000 Cl
   0.0000000000000000    0.7515902519226074    0.5000000000000000 Cl
   0.0000000000000000    0.2484097480773926    0.5000000000000000 Cl
   0.0000000000000000    0.5000000000000000    0.7515902519226074 Cl
   0.0000000000000000    0.5000000000000000    0.2484097480773926 Cl
   0.7515902519226074    0.0000000000000000    0.5000000000000000 Cl
   0.2484097480773926    0.0000000000000000    0.5000000000000000 Cl
   0.5000000000000000    0.2515902519226074    0.5000000000000000 Cl
   0.5000000000000000    0.7484097480773926    0.5000000000000000 Cl
   0.5000000000000000    0.0000000000000000    0.7515902519226074 Cl
   0.5000000000000000    0.0000000000000000    0.2484097480773926 Cl
   0.7515902519226074    0.5000000000000000    0.0000000000000000 Cl
   0.2484097480773926    0.5000000000000000    0.0000000000000000 Cl
   0.5000000000000000    0.7515902519226074    0.0000000000000000 Cl
   0.5000000000000000    0.2484097480773926    0.0000000000000000 Cl
   0.5000000000000000    0.5000000000000000    0.2515902519226074 Cl
   0.5000000000000000    0.5000000000000000    0.7484097480773926 Cl
