K4 Rb8 Sm4 Cl24
1.0
  11.2551479099042009    0.0000000000000000   -0.0007358683780771
  -0.0007359164911698   11.2551478858452949   -0.0007358683780771
   0.0000000000000000    0.0000000000000000   11.2551479339599609
Sm K Rb Cl
4 4 8 24
direct
   0.0000000000000000    0.0000000000000000    0.0000000000000000 Sm
   0.0000000000000000    0.5000000000000000    0.5000000000000000 Sm
   0.5000000000000000    0.0000000000000000    0.5000000000000000 Sm
   0.5000000000000000    0.5000000000000000    0.0000000000000000 Sm
   0.5000000000000000    0.0000000000000000    0.0000000000000000 K
   0.0000000000000000    0.5000000000000000    0.0000000000000000 K
   0.0000000000000000    0.0000000000000000    0.5000000000000000 K
   0.5000000000000000    0.5000000000000000    0.5000000000000000 K
   0.2500000000000000    0.2500000000000000    0.2500000000000000 Rb
   0.7500000000000000    0.7500000000000000    0.2500000000000000 Rb
   0.7500000000000000    0.2500000000000000    0.7500000000000000 Rb
   0.2500000000000000    0.7500000000000000    0.7500000000000000 Rb
   0.2500000000000000    0.2500000000000000    0.7500000000000000 Rb
   0.7500000000000000    0.7500000000000000    0.7500000000000000 Rb
   0.2500000000000000    0.7500000000000000    0.2500000000000000 Rb
   0.7500000000000000    0.2500000000000000    0.2500000000000000 Rb
   0.2412109375000000    0.0000000000000000    0.0000000000000000 Cl
   0.7587890625000000    0.0000000000000000    0.0000000000000000 Cl
   0.0000000000000000    0.2412109375000000    0.0000000000000000 Cl
   0.0000000000000000    0.7587890625000000    0.0000000000000000 Cl
   0.0000000000000000    0.0000000000000000    0.2412109375000000 Cl
   0.0000000000000000    0.0000000000000000    0.7587890625000000 Cl
   0.2412109375000000    0.5000000000000000    0.5000000000000000 Cl
   0.7587890625000000    0.5000000000000000    0.5000000000000000 Cl
   0.0000000000000000    0.7412109375000000    0.5000000000000000 Cl
   0.0000000000000000    0.2587890625000000    0.5000000000000000 Cl
   0.0000000000000000    0.5000000000000000    0.7412109375000000 Cl
   0.0000000000000000    0.5000000000000000    0.2587890625000000 Cl
   0.7412109375000000    0.0000000000000000    0.5000000000000000 Cl
   0.2587890625000000    0.0000000000000000    0.5000000000000000 Cl
   0.5000000000000000    0.2412109375000000    0.5000000000000000 Cl
   0.5000000000000000    0.7587890625000000    0.5000000000000000 Cl
   0.5000000000000000    0.0000000000000000    0.7412109375000000 Cl
   0.5000000000000000    0.0000000000000000    0.2587890625000000 Cl
   0.7412109375000000    0.5000000000000000    0.0000000000000000 Cl
   0.2587890625000000    0.5000000000000000    0.0000000000000000 Cl
   0.5000000000000000    0.7412109375000000    0.0000000000000000 Cl
   0.5000000000000000    0.2587890625000000    0.0000000000000000 Cl
   0.5000000000000000    0.5000000000000000    0.2412109375000000 Cl
   0.5000000000000000    0.5000000000000000    0.7587890625000000 Cl
