Y4 P6
1.0
   4.7796370867130307    0.0000000000000000   -2.1531950730163087
  -0.0008470467086473    8.3731536257828392   -0.0005474418513951
   0.0000000000000000    0.0000000000000000    5.5828514099121094
P Y P
2 4 4
direct
   0.3095703125000000    0.2500000000000000    0.3607177734375000 P
   0.6904296875000000    0.7500000000000000    0.6392822265625000 P
   0.0655517578125000    0.2500000000000000    0.6696624755859375 Y
   0.9344482421875000    0.7500000000000000    0.3303375244140625 Y
   0.6105041503906250    0.2500000000000000    0.1086349487304688 Y
   0.3894958496093750    0.7500000000000000    0.8913650512695312 Y
   0.7823638916015625    0.5037078857421875    0.8607406616210938 P
   0.2176361083984375    0.0037078857421875    0.1392593383789062 P
   0.2176361083984375    0.4962921142578125    0.1392593383789062 P
   0.7823638916015625    0.9962921142578125    0.8607406616210938 P
