Ru2 N4
1.0
   4.2990488914158398    0.0000000000000000   -0.0002810744168201
  -0.0003239198416569    4.9540481355602060   -0.0003238986642739
   0.0000000000000000    0.0000000000000000    4.3776502609252930
Ru N
2 4
direct
   0.2500000000000000    0.7500000000000000    0.6152954101562500 Ru
   0.7500000000000000    0.2500000000000000    0.3847045898437500 Ru
   0.2500000000000000    0.1062622070312500    0.3461265563964844 N
   0.2500000000000000    0.3937377929687500    0.3461265563964844 N
   0.7500000000000000    0.6062622070312500    0.6538734436035156 N
   0.7500000000000000    0.8937377929687500    0.6538734436035156 N
