Li4 Cd4 Rh8
1.0
   6.2771491870232285    0.0000000000000000   -0.0004104038106099
  -0.0004104306439366    6.2771491736052498   -0.0004104038106099
   0.0000000000000000    0.0000000000000000    6.2771492004394531
Li Cd Rh
4 4 8
direct
   0.0000000000000000    0.0000000000000000    0.0000000000000000 Li
   0.0000000000000000    0.5000000000000000    0.5000000000000000 Li
   0.5000000000000000    0.0000000000000000    0.5000000000000000 Li
   0.5000000000000000    0.5000000000000000    0.0000000000000000 Li
   0.5000000000000000    0.0000000000000000    0.0000000000000000 Cd
   0.0000000000000000    0.5000000000000000    0.0000000000000000 Cd
   0.0000000000000000    0.0000000000000000    0.5000000000000000 Cd
   0.5000000000000000    0.5000000000000000    0.5000000000000000 Cd
   0.2500000000000000    0.2500000000000000    0.2500000000000000 Rh
   0.7500000000000000    0.7500000000000000    0.2500000000000000 Rh
   0.7500000000000000    0.2500000000000000    0.7500000000000000 Rh
   0.2500000000000000    0.7500000000000000    0.7500000000000000 Rh
   0.2500000000000000    0.2500000000000000    0.7500000000000000 Rh
   0.7500000000000000    0.7500000000000000    0.7500000000000000 Rh
   0.2500000000000000    0.7500000000000000    0.2500000000000000 Rh
   0.7500000000000000    0.2500000000000000    0.2500000000000000 Rh
