Ag4 F12
1.0
   4.4562516117219388    0.0000000000000000   -0.0002913524257585
  -0.0002913714751791    4.4562516021962946   -0.0002913524257585
   0.0000000000000000    0.0000000000000000   10.8621482849121094
Ag F
4 12
direct
   0.7500000000000000    0.2500000000000000    0.0000000000000000 Ag
   0.2500000000000000    0.7500000000000000    0.5000000000000000 Ag
   0.2500000000000000    0.7500000000000000    0.0000000000000000 Ag
   0.7500000000000000    0.2500000000000000    0.5000000000000000 Ag
   0.7500000000000000    0.2500000000000000    0.2500000000000000 F
   0.2500000000000000    0.7500000000000000    0.7500000000000000 F
   0.2500000000000000    0.7500000000000000    0.2500000000000000 F
   0.7500000000000000    0.2500000000000000    0.7500000000000000 F
   0.8435974121093750    0.8435974121093750    0.0695495605468750 F
   0.6564025878906250    0.6564025878906250    0.0695495605468750 F
   0.6564025878906250    0.8435974121093750    0.5695495605468750 F
   0.8435974121093750    0.6564025878906250    0.5695495605468750 F
   0.1564025878906250    0.3435974121093750    0.4304504394531250 F
   0.3435974121093750    0.1564025878906250    0.4304504394531250 F
   0.3435974121093750    0.3435974121093750    0.9304504394531250 F
   0.1564025878906250    0.1564025878906250    0.9304504394531250 F
