Nd1 Tl3
1.0
   4.7706489461024644    0.0000000000000000   -0.0003119079136450
  -0.0003119283070398    4.7706489359047675   -0.0003119079136450
   0.0000000000000000    0.0000000000000000    4.7706489562988281
Nd Tl
1 3
direct
   0.0000000000000000    0.0000000000000000    0.0000000000000000 Nd
   0.5000000000000000    0.5000000000000000    0.0000000000000000 Tl
   0.0000000000000000    0.5000000000000000    0.5000000000000000 Tl
   0.5000000000000000    0.0000000000000000    0.5000000000000000 Tl
