Th4 Zn20
1.0
   8.3207530797501370    0.0000000000000000   -0.0005440158691995
  -0.0002434048222747    3.7226469357614604   -0.0002433889088403
   0.0000000000000000    0.0000000000000000   13.4297494888305664
Zn Th
20 4
direct
   0.5390777587890625    0.2500000000000000    0.0732421875000000 Zn
   0.9609222412109375    0.7500000000000000    0.5732421875000000 Zn
   0.4609222412109375    0.7500000000000000    0.9267578125000000 Zn
   0.0390777587890625    0.2500000000000000    0.4267578125000000 Zn
   0.1755371093750000    0.2500000000000000    0.6325073242187500 Zn
   0.3244628906250000    0.7500000000000000    0.1325073242187500 Zn
   0.8244628906250000    0.7500000000000000    0.3674926757812500 Zn
   0.6755371093750000    0.2500000000000000    0.8674926757812500 Zn
   0.7504081726074219    0.2500000000000000    0.5181884765625000 Zn
   0.7495918273925781    0.7500000000000000    0.0181884765625000 Zn
   0.2495918273925781    0.7500000000000000    0.4818115234375000 Zn
   0.2504081726074219    0.2500000000000000    0.9818115234375000 Zn
   0.8923645019531250    0.2500000000000000    0.7241210937500000 Zn
   0.6076354980468750    0.7500000000000000    0.2241210937500000 Zn
   0.1076354980468750    0.7500000000000000    0.2758789062500000 Zn
   0.3923645019531250    0.2500000000000000    0.7758789062500000 Zn
   0.4550781250000000    0.2500000000000000    0.5598831176757812 Zn
   0.0449218750000000    0.7500000000000000    0.0598831176757812 Zn
   0.5449218750000000    0.7500000000000000    0.4401168823242188 Zn
   0.9550781250000000    0.2500000000000000    0.9401168823242188 Zn
   0.3686218261718750    0.2500000000000000    0.3089599609375000 Th
   0.1313781738281250    0.7500000000000000    0.8089599609375000 Th
   0.6313781738281250    0.7500000000000000    0.6910400390625000 Th
   0.8686218261718750    0.2500000000000000    0.1910400390625000 Th
