Hf4 Fe6 Si2
1.0
   5.1898484119118260    0.0000000000000000   -0.0003393154282743
  -2.5946297793984203    4.4947105409005603   -0.0003393154282743
   0.0000000000000000    0.0000000000000000    7.7967514991760254
Si Hf Fe
2 4 6
direct
   0.0000000000000000    0.0000000000000000    0.0000000000000000 Si
   0.0000000000000000    0.0000000000000000    0.5000000000000000 Si
   0.6666666865348816    0.3333333432674408    0.5100097656250000 Hf
   0.3333333134651184    0.6666666269302368    0.0100097656250000 Hf
   0.3333333432674408    0.6666666865348816    0.4899902343750000 Hf
   0.6666666269302368    0.3333333134651184    0.9899902343750000 Hf
   0.5005493164062500    0.0010986328125000    0.2500000000000000 Fe
   0.9989013671875000    0.4994506835937500    0.2500000000000000 Fe
   0.5005493164062500    0.4994506835937500    0.2500000000000000 Fe
   0.4994506835937500    0.9989013671875000    0.7500000000000000 Fe
   0.0010986328125000    0.5005493164062500    0.7500000000000000 Fe
   0.4994506835937500    0.5005493164062500    0.7500000000000000 Fe
