Li2 Zr2 F10
1.0
   5.5173013860287146    0.0000000000000000   -0.0227500167264932
  -0.0003613581161014    5.5042495491278931   -0.0003598711655680
   0.0000000000000000    0.0000000000000000    5.8579502105712891
Li F Zr
2 10 2
direct
   0.0269775390625000    0.3634033203125000    0.1531372070312500 Li
   0.9730224609375000    0.8634033203125000    0.8468627929687500 Li
   0.7614288330078125    0.5612792968750000    0.4512023925781250 F
   0.2385711669921875    0.0612792968750000    0.5487976074218750 F
   0.1419067382812500    0.7738342285156250    0.1578979492187500 F
   0.8580932617187500    0.2738342285156250    0.8421020507812500 F
   0.6372451782226562    0.6528930664062500    0.9957962036132812 F
   0.3627548217773438    0.1528930664062500    0.0042037963867188 F
   0.3635253906250000    0.4592819213867188    0.3803100585937500 F
   0.6364746093750000    0.9592819213867188    0.6196899414062500 F
   0.7623519897460938    0.0845336914062500    0.2225036621093750 F
   0.2376480102539062    0.5845336914062500    0.7774963378906250 F
   0.5130462646484375    0.3411026000976562    0.7040100097656250 Zr
   0.4869537353515625    0.8411026000976562    0.2959899902343750 Zr
