Si2 P4
1.0
   3.7095487038482711    0.0000000000000000   -0.0002425325379951
  -0.0003735993638246    5.7138495200989938   -0.0003735749384706
   0.0000000000000000    0.0000000000000000    3.9453525543212891
Si P
2 4
direct
   0.0000000000000000    0.0000000000000000    0.0000000000000000 Si
   0.5000000000000000    0.5000000000000000    0.5000000000000000 Si
   0.0000000000000000    0.2173767089843750    0.5000000000000000 P
   0.0000000000000000    0.7826232910156250    0.5000000000000000 P
   0.5000000000000000    0.7173767089843750    0.0000000000000000 P
   0.5000000000000000    0.2826232910156250    0.0000000000000000 P
