Mn2 Tl2 Ga4 Se8
1.0
   5.7007474777449243    0.0000000000000000   -0.0003727183182181
  -0.0003727426875639    5.7007474655590569   -0.0003727183182181
   0.0000000000000000    0.0000000000000000   11.1372518539428711
Mn Ga Tl Se
2 4 2 8
direct
   0.0000000000000000    0.0000000000000000    0.0000000000000000 Mn
   0.5000000000000000    0.5000000000000000    0.5000000000000000 Mn
   0.0000000000000000    0.0000000000000000    0.5000000000000000 Ga
   0.5000000000000000    0.5000000000000000    0.0000000000000000 Ga
   0.0000000000000000    0.5000000000000000    0.2500000000000000 Ga
   0.5000000000000000    0.0000000000000000    0.7500000000000000 Ga
   0.5000000000000000    0.0000000000000000    0.2500000000000000 Tl
   0.0000000000000000    0.5000000000000000    0.7500000000000000 Tl
   0.2720336914062500    0.2281494140625000    0.6110372543334961 Se
   0.7279663085937500    0.7718505859375000    0.6110372543334961 Se
   0.2281494140625000    0.7279663085937500    0.3889627456665039 Se
   0.7718505859375000    0.2720336914062500    0.3889627456665039 Se
   0.7720336914062500    0.7281494140625000    0.1110372543334961 Se
   0.2279663085937500    0.2718505859375000    0.1110372543334961 Se
   0.7281494140625000    0.2279663085937500    0.8889627456665039 Se
   0.2718505859375000    0.7720336914062500    0.8889627456665039 Se
