Ce2 Eu2 Ta2 O14
1.0
   5.3988135598858422    0.0000000000000000   -0.0830440122580141
  -0.0003584913208353    5.3994521860315041   -0.0003530194505841
   0.0000000000000000    0.0000000000000000   10.4822521209716797
O Ce Eu Ta
14 2 2 2
direct
   0.9519042968750000    0.1248779296875000    0.7662353515625000 O
   0.9519042968750000    0.8751220703125000    0.2662353515625000 O
   0.4936523437500000    0.6068725585937500    0.9426879882812500 O
   0.4936523437500000    0.3931274414062500    0.4426879882812500 O
   0.4902343750000000    0.4222717285156250    0.7336425781250000 O
   0.4902343750000000    0.5777282714843750    0.2336425781250000 O
   0.0231933593750000    0.6594238281250000    0.8847656250000000 O
   0.0231933593750000    0.3405761718750000    0.3847656250000000 O
   0.5095214843750000    0.1337280273437500    0.1411132812500000 O
   0.5095214843750000    0.8662719726562500    0.6411132812500000 O
   0.0825195312500000    0.6330566406250000    0.6219482421875000 O
   0.0825195312500000    0.3669433593750000    0.1219482421875000 O
   0.3989257812500000    0.9991149902343750    0.8811035156250000 O
   0.3989257812500000    0.0008850097656250    0.3811035156250000 O
   0.1953735351562500    0.2068481445312500    0.5920410156250000 Ce
   0.1953735351562500    0.7931518554687500    0.0920410156250000 Ce
   0.7443847656250000    0.2681884765625000    0.9409179687500000 Eu
   0.7443847656250000    0.7318115234375000    0.4409179687500000 Eu
   0.3127441406250000    0.7152304649353027    0.7792358398437500 Ta
   0.3127441406250000    0.2847695350646973    0.2792358398437500 Ta
