Dy6 Sn4 Ge4
1.0
   4.6265487572014665    0.0000000000000000   -0.0003024865561350
  -0.0004155699844080    6.3557505335902809   -0.0004155428150791
   0.0000000000000000    0.0000000000000000   13.4297494888305664
Dy Sn Dy Ge
2 4 4 4
direct
   0.0000000000000000    0.5000000000000000    0.0000000000000000 Dy
   0.5000000000000000    0.0000000000000000    0.5000000000000000 Dy
   0.0000000000000000    0.7232666015625000    0.5000000000000000 Sn
   0.0000000000000000    0.2767333984375000    0.5000000000000000 Sn
   0.5000000000000000    0.2232666015625000    0.0000000000000000 Sn
   0.5000000000000000    0.7767333984375000    0.0000000000000000 Sn
   0.0000000000000000    0.0000000000000000    0.8516845703125000 Dy
   0.0000000000000000    0.0000000000000000    0.1483154296875000 Dy
   0.5000000000000000    0.5000000000000000    0.3516845703125000 Dy
   0.5000000000000000    0.5000000000000000    0.6483154296875000 Dy
   0.0000000000000000    0.5000000000000000    0.2178955078125000 Ge
   0.0000000000000000    0.5000000000000000    0.7821044921875000 Ge
   0.5000000000000000    0.0000000000000000    0.7178955078125000 Ge
   0.5000000000000000    0.0000000000000000    0.2821044921875000 Ge
