Cs3 Ni3 O6
1.0
   3.3820490764812234    0.0000000000000000   -0.0002211204142682
  -1.6908326703886385    2.9290511836555404   -0.0002211204142682
   0.0000000000000000    0.0000000000000000   19.0234489440917969
Cs Ni O
3 3 6
direct
   0.0000000000000000    0.0000000000000000    0.0000000000000000 Cs
   0.6666666865348816    0.3333333432674408    0.3333333432674408 Cs
   0.3333333432674408    0.6666666865348816    0.6666666865348816 Cs
   0.3333333432674408    0.6666666865348816    0.1666666716337204 Ni
   0.6666666865348816    0.3333333432674408    0.8333333134651184 Ni
   0.0000000000000000    0.0000000000000000    0.5000000000000000 Ni
   0.3333333432674408    0.6666666865348816    0.8827514648437500 O
   0.6666666865348816    0.3333333432674408    0.1172485351562500 O
   0.0000000000000000    0.0000000000000000    0.2160848379135132 O
   0.3333333730697632    0.6666666865348816    0.4505819082260132 O
   0.6666666865348816    0.3333333730697632    0.5494182109832764 O
   0.0000000000000000    0.0000000000000000    0.7839152216911316 O
