Zn2 Pt2 O8
1.0
   4.2665316998076923    0.0000000000000000   -2.7182114514678468
  -0.0006450470927401    5.4125499225287443   -0.0003538757902535
   0.0000000000000000    0.0000000000000000    6.4998469352722168
Pt Zn O
2 2 8
direct
   0.0000000000000000    0.0000000000000000    0.0000000000000000 Pt
   0.0000000000000000    0.5000000000000000    0.5000000000000000 Pt
   0.5000000000000000    0.0000000000000000    0.5000000000000000 Zn
   0.5000000000000000    0.5000000000000000    0.0000000000000000 Zn
   0.3877182006835938    0.8388061523437500    0.1721801757812500 O
   0.6122817993164062    0.3388061523437500    0.3278198242187500 O
   0.6122817993164062    0.1611938476562500    0.8278198242187500 O
   0.3877182006835938    0.6611938476562500    0.6721801757812500 O
   0.9065551757812500    0.6867675781250000    0.1891021728515625 O
   0.0934448242187500    0.1867675781250000    0.3108978271484375 O
   0.0934448242187500    0.3132324218750000    0.8108978271484375 O
   0.9065551757812500    0.8132324218750000    0.6891021728515625 O
