K12 Na12
1.0
   6.0413489212613376    0.0000000000000000   -0.0003949870466095
  -3.0203317273898640    5.2321595010996838   -0.0003949870466095
   0.0000000000000000    0.0000000000000000   33.0273513793945312
Na K
12 12
direct
   0.0000000000000000    0.0000000000000000    0.0000000000000000 Na
   0.6666666865348816    0.3333333432674408    0.3333333432674408 Na
   0.3333333432674408    0.6666666865348816    0.6666666865348816 Na
   0.3333333432674408    0.6666666865348816    0.1666666716337204 Na
   0.6666666865348816    0.3333333432674408    0.8333333134651184 Na
   0.0000000000000000    0.0000000000000000    0.5000000000000000 Na
   0.3333333432674408    0.6666666865348816    0.7954101562500000 Na
   0.6666666865348816    0.3333333432674408    0.2045898437500000 Na
   0.0000000000000000    0.0000000000000000    0.1287435293197632 Na
   0.3333333730697632    0.6666666865348816    0.5379232168197632 Na
   0.6666666865348816    0.3333333730697632    0.4620769023895264 Na
   0.0000000000000000    0.0000000000000000    0.8712565302848816 Na
   0.3333333432674408    0.6666666865348816    0.2952270507812500 K
   0.6666666865348816    0.3333333432674408    0.7047729492187500 K
   0.0000000000000000    0.0000000000000000    0.6285604238510132 K
   0.3333333730697632    0.6666666865348816    0.0381062924861908 K
   0.6666666865348816    0.3333333730697632    0.9618937373161316 K
   0.0000000000000000    0.0000000000000000    0.3714396357536316 K
   0.0000000000000000    0.0000000000000000    0.7638244628906250 K
   0.0000000000000000    0.0000000000000000    0.2361755371093750 K
   0.6666666865348816    0.3333333432674408    0.0971578359603882 K
   0.6666666865348816    0.3333333432674408    0.5695089101791382 K
   0.3333333432674408    0.6666666865348816    0.4304912090301514 K
   0.3333333432674408    0.6666666865348816    0.9028422236442566 K
