Ga2 Sb2 S6
1.0
   4.7656858467729064    0.0000000000000000   -0.2175543015053970
  -0.0006653396329422    9.7224502128020447   -0.0006356596770698
   0.0000000000000000    0.0000000000000000    5.8317532539367676
S Ga Sb
6 2 2
direct
   0.5858154296875000    0.5756835937500000    0.7381286621093750 S
   0.4141845703125000    0.0756835937500000    0.2618713378906250 S
   0.1137695312500000    0.7162780761718750    0.3748779296875000 S
   0.8862304687500000    0.2162780761718750    0.6251220703125000 S
   0.1330566406250000    0.4027099609375000    0.1079711914062500 S
   0.8669433593750000    0.9027099609375000    0.8920288085937500 S
   0.9986572265625000    0.6437988281250000    0.9854278564453125 Ga
   0.0013427734375000    0.1437988281250000    0.0145721435546875 Ga
   0.5407714843750000    0.8563842773437500    0.5043563842773438 Sb
   0.4592285156250000    0.3563842773437500    0.4956436157226562 Sb
