Er4 Bi4 Rh4
1.0
   6.9976515620396862    0.0000000000000000   -0.0004575106916876
  -0.0002759537031884    4.2204513369384493   -0.0002759356617581
   0.0000000000000000    0.0000000000000000    7.8622508049011230
Rh Er Bi
4 4 4
direct
   0.2639465332031250    0.2500000000000000    0.3927612304687500 Rh
   0.2360534667968750    0.7500000000000000    0.8927612304687500 Rh
   0.7360534667968750    0.7500000000000000    0.6072387695312500 Rh
   0.7639465332031250    0.2500000000000000    0.1072387695312500 Rh
   0.0177612304687500    0.2500000000000000    0.6882476806640625 Er
   0.4822387695312500    0.7500000000000000    0.1882476806640625 Er
   0.9822387695312500    0.7500000000000000    0.3117523193359375 Er
   0.5177612304687500    0.2500000000000000    0.8117523193359375 Er
   0.1646575927734375    0.2500000000000000    0.0751037597656250 Bi
   0.3353424072265625    0.7500000000000000    0.5751037597656250 Bi
   0.8353424072265625    0.7500000000000000    0.9248962402343750 Bi
   0.6646575927734375    0.2500000000000000    0.4248962402343750 Bi
