Np2 Ni4 Ge4
1.0
   4.5086526774363573    0.0000000000000000   -0.0002947784391299
  -0.0002947977125527    4.5086526677987013   -0.0002947784391299
   0.0000000000000000    0.0000000000000000   10.7180519104003906
Np Ni Ge
2 4 4
direct
   0.0000000000000000    0.0000000000000000    0.0000000000000000 Np
   0.5000000000000000    0.5000000000000000    0.5000000000000000 Np
   0.0000000000000000    0.5000000000000000    0.2500000000000000 Ni
   0.5000000000000000    0.0000000000000000    0.2500000000000000 Ni
   0.0000000000000000    0.5000000000000000    0.7500000000000000 Ni
   0.5000000000000000    0.0000000000000000    0.7500000000000000 Ni
   0.5000000000000000    0.5000000000000000    0.8608398437500000 Ge
   0.5000000000000000    0.5000000000000000    0.1391601562500000 Ge
   0.0000000000000000    0.0000000000000000    0.3608398437500000 Ge
   0.0000000000000000    0.0000000000000000    0.6391601562500000 Ge
