Lu8 Mn4 Pd4
1.0
   6.9059519620159504    0.0000000000000000   -0.0004515153163732
  -0.0004515448376828    6.9059519472538478   -0.0004515153163732
   0.0000000000000000    0.0000000000000000    6.9059519767761230
Pd Mn Lu
4 4 8
direct
   0.0000000000000000    0.0000000000000000    0.0000000000000000 Pd
   0.0000000000000000    0.5000000000000000    0.5000000000000000 Pd
   0.5000000000000000    0.0000000000000000    0.5000000000000000 Pd
   0.5000000000000000    0.5000000000000000    0.0000000000000000 Pd
   0.5000000000000000    0.0000000000000000    0.0000000000000000 Mn
   0.0000000000000000    0.5000000000000000    0.0000000000000000 Mn
   0.0000000000000000    0.0000000000000000    0.5000000000000000 Mn
   0.5000000000000000    0.5000000000000000    0.5000000000000000 Mn
   0.2500000000000000    0.2500000000000000    0.2500000000000000 Lu
   0.7500000000000000    0.7500000000000000    0.2500000000000000 Lu
   0.7500000000000000    0.2500000000000000    0.7500000000000000 Lu
   0.2500000000000000    0.7500000000000000    0.7500000000000000 Lu
   0.2500000000000000    0.2500000000000000    0.7500000000000000 Lu
   0.7500000000000000    0.7500000000000000    0.7500000000000000 Lu
   0.2500000000000000    0.7500000000000000    0.2500000000000000 Lu
   0.7500000000000000    0.2500000000000000    0.2500000000000000 Lu
