In8 Co12 Mo2 As12
1.0
   8.4648532686511331    0.0000000000000000   -0.0005534372267096
  -0.0005534734119532    8.4648532505567378   -0.0005534372267096
   0.0000000000000000    0.0000000000000000    8.4648532867431641
Mo In Co As
2 8 12 12
direct
   0.0000000000000000    0.0000000000000000    0.0000000000000000 Mo
   0.5000000000000000    0.5000000000000000    0.5000000000000000 Mo
   0.2500000000000000    0.2500000000000000    0.2500000000000000 In
   0.7500000000000000    0.7500000000000000    0.2500000000000000 In
   0.7500000000000000    0.2500000000000000    0.7500000000000000 In
   0.2500000000000000    0.7500000000000000    0.7500000000000000 In
   0.2500000000000000    0.2500000000000000    0.7500000000000000 In
   0.7500000000000000    0.7500000000000000    0.7500000000000000 In
   0.2500000000000000    0.7500000000000000    0.2500000000000000 In
   0.7500000000000000    0.2500000000000000    0.2500000000000000 In
   0.5000000000000000    0.2500000000000000    0.0000000000000000 Co
   0.5000000000000000    0.7500000000000000    0.0000000000000000 Co
   0.0000000000000000    0.5000000000000000    0.2500000000000000 Co
   0.0000000000000000    0.5000000000000000    0.7500000000000000 Co
   0.2500000000000000    0.0000000000000000    0.5000000000000000 Co
   0.7500000000000000    0.0000000000000000    0.5000000000000000 Co
   0.2500000000000000    0.5000000000000000    0.0000000000000000 Co
   0.7500000000000000    0.5000000000000000    0.0000000000000000 Co
   0.5000000000000000    0.0000000000000000    0.7500000000000000 Co
   0.5000000000000000    0.0000000000000000    0.2500000000000000 Co
   0.0000000000000000    0.2500000000000000    0.5000000000000000 Co
   0.0000000000000000    0.7500000000000000    0.5000000000000000 Co
   0.6650390625000000    0.0000000000000000    0.0000000000000000 As
   0.3349609375000000    0.0000000000000000    0.0000000000000000 As
   0.0000000000000000    0.6650390625000000    0.0000000000000000 As
   0.0000000000000000    0.3349609375000000    0.0000000000000000 As
   0.0000000000000000    0.0000000000000000    0.6650390625000000 As
   0.0000000000000000    0.0000000000000000    0.3349609375000000 As
   0.1650390625000000    0.5000000000000000    0.5000000000000000 As
   0.8349609375000000    0.5000000000000000    0.5000000000000000 As
   0.5000000000000000    0.1650390625000000    0.5000000000000000 As
   0.5000000000000000    0.8349609375000000    0.5000000000000000 As
   0.5000000000000000    0.5000000000000000    0.1650390625000000 As
   0.5000000000000000    0.5000000000000000    0.8349609375000000 As
