Cs8 K4 Lu4 O12
1.0
   6.7783624594994327    0.0000000000000000   -2.3709265352922615
  -0.0011407733358910   12.3817471667732164   -0.0008095261223558
   0.0000000000000000    0.0000000000000000    7.4692516326904297
K Cs O Cs Lu O
4 4 4 4 4 8
direct
   0.0000000000000000    0.3655395507812500    0.5000000000000000 K
   0.0000000000000000    0.6344604492187500    0.5000000000000000 K
   0.5000000000000000    0.8655395507812500    0.5000000000000000 K
   0.5000000000000000    0.1344604492187500    0.5000000000000000 K
   0.5000000000000000    0.3705444335937500    0.5000000000000000 Cs
   0.5000000000000000    0.6294555664062500    0.5000000000000000 Cs
   0.0000000000000000    0.8705444335937500    0.5000000000000000 Cs
   0.0000000000000000    0.1294555664062500    0.5000000000000000 Cs
   0.2626037597656250    0.0000000000000000    0.3782348632812500 O
   0.7373962402343750    0.0000000000000000    0.6217651367187500 O
   0.7626037597656250    0.5000000000000000    0.3782348632812500 O
   0.2373962402343750    0.5000000000000000    0.6217651367187500 O
   0.4133758544921875    0.0000000000000000    0.8111572265625000 Cs
   0.5866241455078125    0.0000000000000000    0.1888427734375000 Cs
   0.9133758544921875    0.5000000000000000    0.8111572265625000 Cs
   0.0866241455078125    0.5000000000000000    0.1888427734375000 Cs
   0.1149902343750000    0.0000000000000000    0.1101531982421875 Lu
   0.8850097656250000    0.0000000000000000    0.8898468017578125 Lu
   0.6149902343750000    0.5000000000000000    0.1101531982421875 Lu
   0.3850097656250000    0.5000000000000000    0.8898468017578125 Lu
   0.6520996093750000    0.3830871582031250    0.9377746582031250 O
   0.3479003906250000    0.3830871582031250    0.0622253417968750 O
   0.3479003906250000    0.6169128417968750    0.0622253417968750 O
   0.6520996093750000    0.6169128417968750    0.9377746582031250 O
   0.1520996093750000    0.8830871582031250    0.9377746582031250 O
   0.8479003906250000    0.8830871582031250    0.0622253417968750 O
   0.8479003906250000    0.1169128417968750    0.0622253417968750 O
   0.1520996093750000    0.1169128417968750    0.9377746582031250 O
