U4 Cr4 Ni4 Sn4 Ge4
1.0
   5.7793521757580741    0.0000000000000000   -0.0003778575409186
  -0.0003530425319640    5.3994521863905218   -0.0003530194505841
   0.0000000000000000    0.0000000000000000   13.2594518661499023
Cr Ni Ge Sn U
4 4 4 4 4
direct
   0.0000000000000000    0.0000000000000000    0.5061492919921875 Cr
   0.5000000000000000    0.0000000000000000    0.5061492919921875 Cr
   0.5000000000000000    0.5000000000000000    0.0061492919921875 Cr
   0.0000000000000000    0.5000000000000000    0.0061492919921875 Cr
   0.2500000000000000    0.7238769531250000    0.8563232421875000 Ni
   0.7500000000000000    0.2761230468750000    0.8563232421875000 Ni
   0.7500000000000000    0.2238769531250000    0.3563232421875000 Ni
   0.2500000000000000    0.7761230468750000    0.3563232421875000 Ni
   0.2500000000000000    0.7898864746093750    0.6505737304687500 Ge
   0.7500000000000000    0.2101135253906250    0.6505737304687500 Ge
   0.7500000000000000    0.2898864746093750    0.1505737304687500 Ge
   0.2500000000000000    0.7101135253906250    0.1505737304687500 Ge
   0.2500000000000000    0.4052734375000000    0.4961090087890625 Sn
   0.7500000000000000    0.5947265625000000    0.4961090087890625 Sn
   0.7500000000000000    0.9052734375000000    0.9961090087890625 Sn
   0.2500000000000000    0.0947265625000000    0.9961090087890625 Sn
   0.2500000000000000    0.2555541992187500    0.7614440917968750 U
   0.7500000000000000    0.7444458007812500    0.7614440917968750 U
   0.7500000000000000    0.7555541992187500    0.2614440917968750 U
   0.2500000000000000    0.2444458007812500    0.2614440917968750 U
