V16 Ag8 Te32
1.0
  11.5564508191112960    0.0000000000000000   -0.0007555677445255
  -0.0007556171456168   11.5564507944083275   -0.0007555677445255
   0.0000000000000000    0.0000000000000000   11.5564508438110352
Ag V Te
8 16 32
direct
   0.8750000000000000    0.8750000000000000    0.8750000000000000 Ag
   0.8750000000000000    0.3750000000000000    0.3750000000000000 Ag
   0.3750000000000000    0.3750000000000000    0.8750000000000000 Ag
   0.3750000000000000    0.8750000000000000    0.3750000000000000 Ag
   0.6250000000000000    0.1250000000000000    0.6250000000000000 Ag
   0.1250000000000000    0.1250000000000000    0.1250000000000000 Ag
   0.1250000000000000    0.6250000000000000    0.6250000000000000 Ag
   0.6250000000000000    0.6250000000000000    0.1250000000000000 Ag
   0.2500000000000000    0.0000000000000000    0.7500000000000000 V
   0.5000000000000000    0.2500000000000000    0.2500000000000000 V
   0.0000000000000000    0.5000000000000000    0.0000000000000000 V
   0.7500000000000000    0.7500000000000000    0.5000000000000000 V
   0.7500000000000000    0.2500000000000000    0.0000000000000000 V
   0.2500000000000000    0.5000000000000000    0.2500000000000000 V
   0.0000000000000000    0.0000000000000000    0.5000000000000000 V
   0.5000000000000000    0.7500000000000000    0.7500000000000000 V
   0.0000000000000000    0.7500000000000000    0.2500000000000000 V
   0.2500000000000000    0.2500000000000000    0.5000000000000000 V
   0.5000000000000000    0.0000000000000000    0.0000000000000000 V
   0.7500000000000000    0.5000000000000000    0.7500000000000000 V
   0.7500000000000000    0.0000000000000000    0.2500000000000000 V
   0.2500000000000000    0.7500000000000000    0.0000000000000000 V
   0.0000000000000000    0.2500000000000000    0.7500000000000000 V
   0.5000000000000000    0.5000000000000000    0.5000000000000000 V
   0.7341918945312500    0.5158081054687500    0.5158081054687500 Te
   0.0158081054687500    0.7341918945312500    0.0158081054687500 Te
   0.5158081054687500    0.0158081054687500    0.2341918945312500 Te
   0.2341918945312500    0.2341918945312500    0.7341918945312500 Te
   0.5158081054687500    0.7341918945312500    0.5158081054687500 Te
   0.0158081054687500    0.0158081054687500    0.7341918945312500 Te
   0.2341918945312500    0.5158081054687500    0.0158081054687500 Te
   0.7341918945312500    0.2341918945312500    0.2341918945312500 Te
   0.5158081054687500    0.5158081054687500    0.7341918945312500 Te
   0.7341918945312500    0.0158081054687500    0.0158081054687500 Te
   0.0158081054687500    0.2341918945312500    0.5158081054687500 Te
   0.2341918945312500    0.7341918945312500    0.2341918945312500 Te
   0.2658081054687500    0.9841918945312500    0.9841918945312500 Te
   0.4841918945312500    0.2658081054687500    0.4841918945312500 Te
   0.7658081054687500    0.7658081054687500    0.2658081054687500 Te
   0.9841918945312500    0.4841918945312500    0.7658081054687500 Te
   0.4841918945312500    0.7658081054687500    0.9841918945312500 Te
   0.7658081054687500    0.2658081054687500    0.7658081054687500 Te
   0.2658081054687500    0.4841918945312500    0.4841918945312500 Te
   0.9841918945312500    0.9841918945312500    0.2658081054687500 Te
   0.2658081054687500    0.7658081054687500    0.7658081054687500 Te
   0.7658081054687500    0.9841918945312500    0.4841918945312500 Te
   0.9841918945312500    0.2658081054687500    0.9841918945312500 Te
   0.4841918945312500    0.4841918945312500    0.2658081054687500 Te
   0.4841918945312500    0.9841918945312500    0.7658081054687500 Te
   0.7658081054687500    0.4841918945312500    0.9841918945312500 Te
   0.9841918945312500    0.7658081054687500    0.4841918945312500 Te
   0.0158081054687500    0.5158081054687500    0.2341918945312500 Te
   0.5158081054687500    0.2341918945312500    0.0158081054687500 Te
   0.2341918945312500    0.0158081054687500    0.5158081054687500 Te
   0.7341918945312500    0.7341918945312500    0.7341918945312500 Te
   0.2658081054687500    0.2658081054687500    0.2658081054687500 Te
