Er2 Al6
1.0
   6.1592492925608617    0.0000000000000000   -0.0004026954441977
  -3.0792752244048733    5.3342680791536710   -0.0004026954441977
   0.0000000000000000    0.0000000000000000    4.9016513824462891
Er Al
2 6
direct
   0.6666666865348816    0.3333333432674408    0.2500000000000000 Er
   0.3333333134651184    0.6666666269302368    0.7500000000000000 Er
   0.1523437500000000    0.3046875000000000    0.2500000000000000 Al
   0.6953125000000000    0.8476562500000000    0.2500000000000000 Al
   0.1523437500000000    0.8476562500000000    0.2500000000000000 Al
   0.8476562500000000    0.6953125000000000    0.7500000000000000 Al
   0.3046875000000000    0.1523437500000000    0.7500000000000000 Al
   0.8476562500000000    0.1523437500000000    0.7500000000000000 Al
