K1 Si2 Ni4 C1
1.0
   3.8405508912971604    0.0000000000000000   -0.0002510975402477
  -0.0002511139576936    3.8405508830876327   -0.0002510975402477
   0.0000000000000000    0.0000000000000000    8.2159509658813477
C K Ni Si
1 1 4 2
direct
   0.0000000000000000    0.0000000000000000    0.0000000000000000 C
   0.0000000000000000    0.0000000000000000    0.5000000000000000 K
   0.0000000000000000    0.5000000000000000    0.0000000000000000 Ni
   0.5000000000000000    0.0000000000000000    0.0000000000000000 Ni
   0.0000000000000000    0.0000000000000000    0.8092041015625000 Ni
   0.0000000000000000    0.0000000000000000    0.1907958984375000 Ni
   0.5000000000000000    0.5000000000000000    0.2050781250000000 Si
   0.5000000000000000    0.5000000000000000    0.7949218750000000 Si
