Mg4 Cd4 Au4
1.0
  12.0787622309147196    0.0000000000000000   -4.7997038072843088
  -0.0003333763128019    3.4606504205766320   -0.0002262594187374
   0.0000000000000000    0.0000000000000000    6.1592493057250977
Mg Cd Au
4 4 4
direct
   0.8373947143554688    0.0000000000000000    0.9148559570312500 Mg
   0.1626052856445312    0.0000000000000000    0.0851440429687500 Mg
   0.3373947143554688    0.5000000000000000    0.9148559570312500 Mg
   0.6626052856445312    0.5000000000000000    0.0851440429687500 Mg
   0.8443603515625000    0.0000000000000000    0.4141845703125000 Cd
   0.1556396484375000    0.0000000000000000    0.5858154296875000 Cd
   0.3443603515625000    0.5000000000000000    0.4141845703125000 Cd
   0.6556396484375000    0.5000000000000000    0.5858154296875000 Cd
   0.5071411132812500    0.0000000000000000    0.7612915039062500 Au
   0.4928588867187500    0.0000000000000000    0.2387084960937500 Au
   0.0071411132812500    0.5000000000000000    0.7612915039062500 Au
   0.9928588867187500    0.5000000000000000    0.2387084960937500 Au
