Cu2 Ag4 Hg2
1.0
   4.1025476368004243    0.0000000000000000   -0.0002682270459387
  -0.0002682445833585    4.1025476280308544   -0.0002682270459387
   0.0000000000000000    0.0000000000000000    7.7181501388549805
Hg Cu Ag
2 2 4
direct
   0.0000000000000000    0.0000000000000000    0.0000000000000000 Hg
   0.5000000000000000    0.5000000000000000    0.5000000000000000 Hg
   0.5000000000000000    0.5000000000000000    0.0000000000000000 Cu
   0.0000000000000000    0.0000000000000000    0.5000000000000000 Cu
   0.0000000000000000    0.5000000000000000    0.2500000000000000 Ag
   0.5000000000000000    0.0000000000000000    0.2500000000000000 Ag
   0.0000000000000000    0.5000000000000000    0.7500000000000000 Ag
   0.5000000000000000    0.0000000000000000    0.7500000000000000 Ag
