Na3 Cr3 S6
1.0
   4.0501508626204199    0.0000000000000000   -0.0002648013131504
  -2.0248456612126726    3.5076661839823280   -0.0002648013131504
   0.0000000000000000    0.0000000000000000   24.0669498443603516
Cr Na S
3 3 6
direct
   0.0000000000000000    0.0000000000000000    0.0000000000000000 Cr
   0.6666666865348816    0.3333333432674408    0.3333333432674408 Cr
   0.3333333432674408    0.6666666865348816    0.6666666865348816 Cr
   0.3333333432674408    0.6666666865348816    0.1666666716337204 Na
   0.6666666865348816    0.3333333432674408    0.8333333134651184 Na
   0.0000000000000000    0.0000000000000000    0.5000000000000000 Na
   0.6666666865348816    0.3333333432674408    0.6148681640625000 S
   0.3333333432674408    0.6666666865348816    0.3851318359375000 S
   0.3333333730697632    0.6666666865348816    0.9482015371322632 S
   0.0000000000000000    0.0000000000000000    0.7184652090072632 S
   0.0000000000000000    0.0000000000000000    0.2815349102020264 S
   0.6666666865348816    0.3333333730697632    0.0517985224723816 S
