Pd6 Pt3
1.0
   2.7663521707537027    0.0000000000000000   -0.0001808657781646
  -1.3830191467763753    2.3958218573766437   -0.0001808657781646
   0.0000000000000000    0.0000000000000000   19.5081501007080078
Pt Pd
3 6
direct
   0.0000000000000000    0.0000000000000000    0.0000000000000000 Pt
   0.6666666865348816    0.3333333432674408    0.3333333432674408 Pt
   0.3333333432674408    0.6666666865348816    0.6666666865348816 Pt
   0.0000000000000000    0.0000000000000000    0.7801971435546875 Pd
   0.0000000000000000    0.0000000000000000    0.2198028564453125 Pd
   0.6666666865348816    0.3333333432674408    0.1135305166244507 Pd
   0.6666666865348816    0.3333333432674408    0.5531362295150757 Pd
   0.3333333432674408    0.6666666865348816    0.4468638896942139 Pd
   0.3333333432674408    0.6666666865348816    0.8864695429801941 Pd
