Al12 Cr4 N16
1.0
   9.7572960475434858    0.0000000000000000   -2.9968441518660285
  -0.0003409548944547    3.8536491160847097   -0.0002519539110930
   0.0000000000000000    0.0000000000000000   10.2464523315429688
N Al Cr
16 12 4
direct
   0.5204467773437500    0.0000000000000000    0.2189941406250000 N
   0.4795532226562500    0.0000000000000000    0.7810058593750000 N
   0.0204467773437500    0.5000000000000000    0.2189941406250000 N
   0.9795532226562500    0.5000000000000000    0.7810058593750000 N
   0.8381347656250000    0.0000000000000000    0.2698974609375000 N
   0.1618652343750000    0.0000000000000000    0.7301025390625000 N
   0.3381347656250000    0.5000000000000000    0.2698974609375000 N
   0.6618652343750000    0.5000000000000000    0.7301025390625000 N
   0.8070068359375000    0.0000000000000000    0.6003417968750000 N
   0.1929931640625000    0.0000000000000000    0.3996582031250000 N
   0.3070068359375000    0.5000000000000000    0.6003417968750000 N
   0.6929931640625000    0.5000000000000000    0.3996582031250000 N
   0.1984252929687500    0.0000000000000000    0.0867309570312500 N
   0.8015747070312500    0.0000000000000000    0.9132690429687500 N
   0.6984252929687500    0.5000000000000000    0.0867309570312500 N
   0.3015747070312500    0.5000000000000000    0.9132690429687500 N
   0.3224029541015625    0.0000000000000000    0.6102905273437500 Al
   0.6775970458984375    0.0000000000000000    0.3897094726562500 Al
   0.8224029541015625    0.5000000000000000    0.6102905273437500 Al
   0.1775970458984375    0.5000000000000000    0.3897094726562500 Al
   0.9735717773437500    0.0000000000000000    0.7763061523437500 Al
   0.0264282226562500    0.0000000000000000    0.2236938476562500 Al
   0.4735717773437500    0.5000000000000000    0.7763061523437500 Al
   0.5264282226562500    0.5000000000000000    0.2236938476562500 Al
   0.3063964843750000    0.0000000000000000    0.9178466796875000 Al
   0.6936035156250000    0.0000000000000000    0.0821533203125000 Al
   0.8063964843750000    0.5000000000000000    0.9178466796875000 Al
   0.1936035156250000    0.5000000000000000    0.0821533203125000 Al
   0.3355636596679688    0.0000000000000000    0.2725219726562500 Cr
   0.6644363403320312    0.0000000000000000    0.7274780273437500 Cr
   0.8355636596679688    0.5000000000000000    0.2725219726562500 Cr
   0.1644363403320312    0.5000000000000000    0.7274780273437500 Cr
