Ba8 Y4 Mo4 O24
1.0
   8.8840522576233383    0.0000000000000000   -0.0005808447101630
  -0.0005808826873831    8.8840522386328669   -0.0005808447101630
   0.0000000000000000    0.0000000000000000    8.8840522766113281
Mo Y Ba O
4 4 8 24
direct
   0.0000000000000000    0.0000000000000000    0.0000000000000000 Mo
   0.0000000000000000    0.5000000000000000    0.5000000000000000 Mo
   0.5000000000000000    0.0000000000000000    0.5000000000000000 Mo
   0.5000000000000000    0.5000000000000000    0.0000000000000000 Mo
   0.5000000000000000    0.0000000000000000    0.0000000000000000 Y
   0.0000000000000000    0.5000000000000000    0.0000000000000000 Y
   0.0000000000000000    0.0000000000000000    0.5000000000000000 Y
   0.5000000000000000    0.5000000000000000    0.5000000000000000 Y
   0.2500000000000000    0.2500000000000000    0.2500000000000000 Ba
   0.7500000000000000    0.7500000000000000    0.2500000000000000 Ba
   0.7500000000000000    0.2500000000000000    0.7500000000000000 Ba
   0.2500000000000000    0.7500000000000000    0.7500000000000000 Ba
   0.2500000000000000    0.2500000000000000    0.7500000000000000 Ba
   0.7500000000000000    0.7500000000000000    0.7500000000000000 Ba
   0.2500000000000000    0.7500000000000000    0.2500000000000000 Ba
   0.7500000000000000    0.2500000000000000    0.2500000000000000 Ba
   0.2360839843750000    0.0000000000000000    0.0000000000000000 O
   0.7639160156250000    0.0000000000000000    0.0000000000000000 O
   0.0000000000000000    0.2360839843750000    0.0000000000000000 O
   0.0000000000000000    0.7639160156250000    0.0000000000000000 O
   0.0000000000000000    0.0000000000000000    0.2360839843750000 O
   0.0000000000000000    0.0000000000000000    0.7639160156250000 O
   0.2360839843750000    0.5000000000000000    0.5000000000000000 O
   0.7639160156250000    0.5000000000000000    0.5000000000000000 O
   0.0000000000000000    0.7360839843750000    0.5000000000000000 O
   0.0000000000000000    0.2639160156250000    0.5000000000000000 O
   0.0000000000000000    0.5000000000000000    0.7360839843750000 O
   0.0000000000000000    0.5000000000000000    0.2639160156250000 O
   0.7360839843750000    0.0000000000000000    0.5000000000000000 O
   0.2639160156250000    0.0000000000000000    0.5000000000000000 O
   0.5000000000000000    0.2360839843750000    0.5000000000000000 O
   0.5000000000000000    0.7639160156250000    0.5000000000000000 O
   0.5000000000000000    0.0000000000000000    0.7360839843750000 O
   0.5000000000000000    0.0000000000000000    0.2639160156250000 O
   0.7360839843750000    0.5000000000000000    0.0000000000000000 O
   0.2639160156250000    0.5000000000000000    0.0000000000000000 O
   0.5000000000000000    0.7360839843750000    0.0000000000000000 O
   0.5000000000000000    0.2639160156250000    0.0000000000000000 O
   0.5000000000000000    0.5000000000000000    0.2360839843750000 O
   0.5000000000000000    0.5000000000000000    0.7639160156250000 O
