Rb2 K8 Sb4
1.0
  11.6745816502794657    0.0000000000000000   -3.4906090479124683
  -0.0005855642357398    6.6701516705510855   -0.0004360985523728
   0.0000000000000000    0.0000000000000000   10.0761470794677734
Rb K Sb
2 8 4
direct
   0.0000000000000000    0.9701843261718750    0.5000000000000000 Rb
   0.5000000000000000    0.4701843261718750    0.5000000000000000 Rb
   0.8507080078125000    0.1187744140625000    0.0547332763671875 K
   0.1492919921875000    0.1187744140625000    0.9452667236328125 K
   0.3507080078125000    0.6187744140625000    0.0547332763671875 K
   0.6492919921875000    0.6187744140625000    0.9452667236328125 K
   0.6046752929687500    0.0034790039062500    0.3123168945312500 K
   0.3953247070312500    0.0034790039062500    0.6876831054687500 K
   0.1046752929687500    0.5034790039062500    0.3123168945312500 K
   0.8953247070312500    0.5034790039062500    0.6876831054687500 K
   0.3103027343750000    0.9520263671875000    0.3140716552734375 Sb
   0.6896972656250000    0.9520263671875000    0.6859283447265625 Sb
   0.8103027343750000    0.4520263671875000    0.3140716552734375 Sb
   0.1896972656250000    0.4520263671875000    0.6859283447265625 Sb
