Hf10 Sn6
1.0
   8.7923526575996025    0.0000000000000000   -0.0005748493348485
  -4.3956775276943008    7.6146887216827270   -0.0005748493348485
   0.0000000000000000    0.0000000000000000    6.4998469352722168
Hf Sn Hf
4 6 6
direct
   0.6666666865348816    0.3333333432674408    0.0000000000000000 Hf
   0.3333333134651184    0.6666666269302368    0.5000000000000000 Hf
   0.3333333134651184    0.6666666269302368    0.0000000000000000 Hf
   0.6666666865348816    0.3333333432674408    0.5000000000000000 Hf
   0.3898506164550781    0.3898506164550781    0.2500000000000000 Sn
   0.6101493835449219    0.0000000000000000    0.2500000000000000 Sn
   0.0000000000000000    0.6101493835449219    0.2500000000000000 Sn
   0.6101493835449219    0.6101493835449219    0.7500000000000000 Sn
   0.3898506164550781    0.0000000000000000    0.7500000000000000 Sn
   0.0000000000000000    0.3898506164550781    0.7500000000000000 Sn
   0.7592163085937500    0.7592163085937500    0.2500000000000000 Hf
   0.2407836914062500    0.0000000000000000    0.2500000000000000 Hf
   0.0000000000000000    0.2407836914062500    0.2500000000000000 Hf
   0.2407836914062500    0.2407836914062500    0.7500000000000000 Hf
   0.7592163085937500    0.0000000000000000    0.7500000000000000 Hf
   0.0000000000000000    0.7592163085937500    0.7500000000000000 Hf
