Ga4 Mo16 Se32
1.0
   9.9844474579081695    0.0000000000000000   -0.0006527892139367
  -0.0006528318950857    9.9844474365655032   -0.0006527892139367
   0.0000000000000000    0.0000000000000000    9.9844474792480469
Ga Se Mo
4 32 16
direct
   0.0000000000000000    0.0000000000000000    0.0000000000000000 Ga
   0.0000000000000000    0.5000000000000000    0.5000000000000000 Ga
   0.5000000000000000    0.0000000000000000    0.5000000000000000 Ga
   0.5000000000000000    0.5000000000000000    0.0000000000000000 Ga
   0.8612060546875000    0.6387939453125000    0.3612060546875000 Se
   0.1387939453125000    0.3612060546875000    0.3612060546875000 Se
   0.1387939453125000    0.6387939453125000    0.6387939453125000 Se
   0.8612060546875000    0.3612060546875000    0.6387939453125000 Se
   0.3612060546875000    0.8612060546875000    0.6387939453125000 Se
   0.3612060546875000    0.1387939453125000    0.3612060546875000 Se
   0.6387939453125000    0.1387939453125000    0.6387939453125000 Se
   0.6387939453125000    0.8612060546875000    0.3612060546875000 Se
   0.6387939453125000    0.3612060546875000    0.8612060546875000 Se
   0.3612060546875000    0.3612060546875000    0.1387939453125000 Se
   0.6387939453125000    0.6387939453125000    0.1387939453125000 Se
   0.3612060546875000    0.6387939453125000    0.8612060546875000 Se
   0.8612060546875000    0.1387939453125000    0.8612060546875000 Se
   0.1387939453125000    0.8612060546875000    0.8612060546875000 Se
   0.1387939453125000    0.1387939453125000    0.1387939453125000 Se
   0.8612060546875000    0.8612060546875000    0.1387939453125000 Se
   0.3577880859375000    0.3577880859375000    0.6422119140625000 Se
   0.6422119140625000    0.6422119140625000    0.6422119140625000 Se
   0.6422119140625000    0.3577880859375000    0.3577880859375000 Se
   0.3577880859375000    0.6422119140625000    0.3577880859375000 Se
   0.3577880859375000    0.8577880859375000    0.1422119140625000 Se
   0.6422119140625000    0.1422119140625000    0.1422119140625000 Se
   0.6422119140625000    0.8577880859375000    0.8577880859375000 Se
   0.3577880859375000    0.1422119140625000    0.8577880859375000 Se
   0.8577880859375000    0.3577880859375000    0.1422119140625000 Se
   0.1422119140625000    0.6422119140625000    0.1422119140625000 Se
   0.1422119140625000    0.3577880859375000    0.8577880859375000 Se
   0.8577880859375000    0.6422119140625000    0.8577880859375000 Se
   0.8577880859375000    0.8577880859375000    0.6422119140625000 Se
   0.1422119140625000    0.1422119140625000    0.6422119140625000 Se
   0.1422119140625000    0.8577880859375000    0.3577880859375000 Se
   0.8577880859375000    0.1422119140625000    0.3577880859375000 Se
   0.4017639160156250    0.0982360839843750    0.0982360839843750 Mo
   0.5982360839843750    0.9017639160156250    0.0982360839843750 Mo
   0.5982360839843750    0.0982360839843750    0.9017639160156250 Mo
   0.4017639160156250    0.9017639160156250    0.9017639160156250 Mo
   0.0982360839843750    0.4017639160156250    0.0982360839843750 Mo
   0.0982360839843750    0.5982360839843750    0.9017639160156250 Mo
   0.9017639160156250    0.5982360839843750    0.0982360839843750 Mo
   0.9017639160156250    0.4017639160156250    0.9017639160156250 Mo
   0.0982360839843750    0.0982360839843750    0.4017639160156250 Mo
   0.9017639160156250    0.0982360839843750    0.5982360839843750 Mo
   0.0982360839843750    0.9017639160156250    0.5982360839843750 Mo
   0.9017639160156250    0.9017639160156250    0.4017639160156250 Mo
   0.4017639160156250    0.5982360839843750    0.5982360839843750 Mo
   0.5982360839843750    0.4017639160156250    0.5982360839843750 Mo
   0.5982360839843750    0.5982360839843750    0.4017639160156250 Mo
   0.4017639160156250    0.4017639160156250    0.4017639160156250 Mo
