Dy4 Ni4 Bi4
1.0
   6.2116498814381229    0.0000000000000000   -0.0004061214263932
  -0.0004061479797258    6.2116498681601549   -0.0004061214263932
   0.0000000000000000    0.0000000000000000    6.2116498947143555
Bi Dy Ni
4 4 4
direct
   0.0000000000000000    0.0000000000000000    0.0000000000000000 Bi
   0.0000000000000000    0.5000000000000000    0.5000000000000000 Bi
   0.5000000000000000    0.0000000000000000    0.5000000000000000 Bi
   0.5000000000000000    0.5000000000000000    0.0000000000000000 Bi
   0.5000000000000000    0.0000000000000000    0.0000000000000000 Dy
   0.0000000000000000    0.5000000000000000    0.0000000000000000 Dy
   0.0000000000000000    0.0000000000000000    0.5000000000000000 Dy
   0.5000000000000000    0.5000000000000000    0.5000000000000000 Dy
   0.2500000000000000    0.2500000000000000    0.7500000000000000 Ni
   0.7500000000000000    0.7500000000000000    0.7500000000000000 Ni
   0.7500000000000000    0.2500000000000000    0.2500000000000000 Ni
   0.2500000000000000    0.7500000000000000    0.2500000000000000 Ni
