Ce8 Zn4 Ga4
1.0
   7.8622507880970423    0.0000000000000000   -0.0005140387120441
  -0.0005140723213048    7.8622507712907641   -0.0005140387120441
   0.0000000000000000    0.0000000000000000    7.8622508049011230
Zn Ga Ce
4 4 8
direct
   0.0000000000000000    0.0000000000000000    0.0000000000000000 Zn
   0.0000000000000000    0.5000000000000000    0.5000000000000000 Zn
   0.5000000000000000    0.0000000000000000    0.5000000000000000 Zn
   0.5000000000000000    0.5000000000000000    0.0000000000000000 Zn
   0.5000000000000000    0.0000000000000000    0.0000000000000000 Ga
   0.0000000000000000    0.5000000000000000    0.0000000000000000 Ga
   0.0000000000000000    0.0000000000000000    0.5000000000000000 Ga
   0.5000000000000000    0.5000000000000000    0.5000000000000000 Ga
   0.2500000000000000    0.2500000000000000    0.2500000000000000 Ce
   0.7500000000000000    0.7500000000000000    0.2500000000000000 Ce
   0.7500000000000000    0.2500000000000000    0.7500000000000000 Ce
   0.2500000000000000    0.7500000000000000    0.7500000000000000 Ce
   0.2500000000000000    0.2500000000000000    0.7500000000000000 Ce
   0.7500000000000000    0.7500000000000000    0.7500000000000000 Ce
   0.2500000000000000    0.7500000000000000    0.2500000000000000 Ce
   0.7500000000000000    0.2500000000000000    0.2500000000000000 Ce
