La2 Si4 Mo2 Ir2
1.0
   4.4169530774126216    0.0000000000000000   -0.0002887830638155
  -0.0002888019452442    4.4169530679709812   -0.0002887830638155
   0.0000000000000000    0.0000000000000000   10.0106515884399414
Mo Si La Ir
2 4 2 2
direct
   0.7500000000000000    0.2500000000000000    0.0000000000000000 Mo
   0.2500000000000000    0.7500000000000000    0.0000000000000000 Mo
   0.7500000000000000    0.2500000000000000    0.5000000000000000 Si
   0.2500000000000000    0.7500000000000000    0.5000000000000000 Si
   0.2500000000000000    0.2500000000000000    0.8669433593750000 Si
   0.7500000000000000    0.7500000000000000    0.1330566406250000 Si
   0.2500000000000000    0.2500000000000000    0.2603149414062500 La
   0.7500000000000000    0.7500000000000000    0.7396850585937500 La
   0.7500000000000000    0.7500000000000000    0.3791503906250000 Ir
   0.2500000000000000    0.2500000000000000    0.6208496093750000 Ir
