Gd3 Fe9 Co51
1.0
   9.7486476689834358    0.0000000000000000   -0.0006373724811122
  -4.8737707815804230    8.4428958149789537   -0.0006373724811122
   0.0000000000000000    0.0000000000000000   10.9669466018676758
Co Gd Fe Co
6 3 9 45
direct
   0.3333333432674408    0.6666666865348816    0.5044250488281250 Co
   0.0000000000000000    0.0000000000000000    0.8377584218978882 Co
   0.6666666865348816    0.3333333730697632    0.1710917949676514 Co
   0.6666666865348816    0.3333333432674408    0.9401550292968750 Co
   0.3333333730697632    0.6666666865348816    0.2734884023666382 Co
   0.0000000000000000    0.0000000000000000    0.6068217754364014 Co
   0.0000000000000000    0.0000000000000000    0.1207962036132812 Gd
   0.6666666865348816    0.3333333432674408    0.4541295468807220 Gd
   0.3333333432674408    0.6666666865348816    0.7874628901481628 Gd
   0.7487945556640625    0.2512054443359375    0.7478027343750000 Fe
   0.7487945556640625    0.4975891113281250    0.7478027343750000 Fe
   0.5024108886718750    0.2512054443359375    0.7478027343750000 Fe
   0.4154613018035889    0.5845388174057007    0.0811361074447632 Fe
   0.4154612421989441    0.8309224843978882    0.0811361074447632 Fe
   0.1690775752067566    0.5845388174057007    0.0811361074447632 Fe
   0.0821279287338257    0.9178721308708191    0.4144694805145264 Fe
   0.0821278989315033    0.1642558574676514    0.4144694805145264 Fe
   0.8357442617416382    0.9178721308708191    0.4144694805145264 Fe
   0.6319885253906250    0.8159942626953125    0.2427978515625000 Co
   0.1840057373046875    0.8159942626953125    0.2427978515625000 Co
   0.1840057373046875    0.3680114746093750    0.2427978515625000 Co
   0.2986552715301514    0.1493276357650757    0.5761312246322632 Co
   0.8506724238395691    0.1493276059627533    0.5761312246322632 Co
   0.8506724238395691    0.7013448476791382    0.5761312246322632 Co
   0.9653218984603882    0.4826610088348389    0.9094645380973816 Co
   0.5173391103744507    0.4826609492301941    0.9094645380973816 Co
   0.5173391103744507    0.0346781611442566    0.9094645380973816 Co
   0.8267211914062500    0.1732788085937500    0.2871093750000000 Co
   0.8267211914062500    0.6534423828125000    0.2871093750000000 Co
   0.3465576171875000    0.1732788085937500    0.2871093750000000 Co
   0.4933879375457764    0.5066121816635132    0.6204427480697632 Co
   0.4933878779411316    0.9867757558822632    0.6204427480697632 Co
   0.0132243037223816    0.5066121816635132    0.6204427480697632 Co
   0.1600545644760132    0.8399454951286316    0.9537760615348816 Co
   0.1600545346736908    0.3201091289520264    0.9537760615348816 Co
   0.6798909902572632    0.8399454951286316    0.9537760615348816 Co
   0.5166015625000000    0.4833984375000000    0.2501831054687500 Co
   0.5166015625000000    0.0332031250000000    0.2501831054687500 Co
   0.9667968750000000    0.4833984375000000    0.2501831054687500 Co
   0.1832683086395264    0.8167318105697632    0.5835164785385132 Co
   0.1832682490348816    0.3665364682674408    0.5835164785385132 Co
   0.6334635615348816    0.8167318105697632    0.5835164785385132 Co
   0.8499349355697632    0.1500651836395264    0.9168497920036316 Co
   0.8499349355697632    0.6998698115348816    0.9168497920036316 Co
   0.3001302182674408    0.1500651240348816    0.9168497920036316 Co
   0.6235656738281250    0.6331176757812500    0.4297637939453125 Co
   0.3668823242187500    0.9904479980468750    0.4297637939453125 Co
   0.0095520019531250    0.3764343261718750    0.4297637939453125 Co
   0.3668823242187500    0.3764343261718750    0.4297637939453125 Co
   0.0095520019531250    0.6331176757812500    0.4297637939453125 Co
   0.6235656738281250    0.9904479980468750    0.4297637939453125 Co
   0.2902324199676514    0.9664510488510132    0.7630971670150757 Co
   0.0335490107536316    0.3237813413143158    0.7630971670150757 Co
   0.6762186884880066    0.7097676992416382    0.7630971670150757 Co
   0.0335490107536316    0.7097676992416382    0.7630971670150757 Co
   0.6762186884880066    0.9664510488510132    0.7630971670150757 Co
   0.2902324199676514    0.3237813413143158    0.7630971670150757 Co
   0.9568990468978882    0.2997844219207764    0.0964305400848389 Co
   0.7002156972885132    0.6571146845817566    0.0964305400848389 Co
   0.3428853452205658    0.0431010127067566    0.0964305400848389 Co
   0.7002156972885132    0.0431010127067566    0.0964305400848389 Co
   0.3428853452205658    0.2997844219207764    0.0964305400848389 Co
   0.9568990468978882    0.6571146845817566    0.0964305400848389 Co
