Ac4 Hg4 Pd8
1.0
   7.2465462529750058    0.0000000000000000   -0.0004737835771261
  -0.0004738145543957    7.2465462374848517   -0.0004737835771261
   0.0000000000000000    0.0000000000000000    7.2465462684631348
Hg Ac Pd
4 4 8
direct
   0.0000000000000000    0.0000000000000000    0.0000000000000000 Hg
   0.0000000000000000    0.5000000000000000    0.5000000000000000 Hg
   0.5000000000000000    0.0000000000000000    0.5000000000000000 Hg
   0.5000000000000000    0.5000000000000000    0.0000000000000000 Hg
   0.5000000000000000    0.0000000000000000    0.0000000000000000 Ac
   0.0000000000000000    0.5000000000000000    0.0000000000000000 Ac
   0.0000000000000000    0.0000000000000000    0.5000000000000000 Ac
   0.5000000000000000    0.5000000000000000    0.5000000000000000 Ac
   0.2500000000000000    0.2500000000000000    0.2500000000000000 Pd
   0.7500000000000000    0.7500000000000000    0.2500000000000000 Pd
   0.7500000000000000    0.2500000000000000    0.7500000000000000 Pd
   0.2500000000000000    0.7500000000000000    0.7500000000000000 Pd
   0.2500000000000000    0.2500000000000000    0.7500000000000000 Pd
   0.7500000000000000    0.7500000000000000    0.7500000000000000 Pd
   0.2500000000000000    0.7500000000000000    0.2500000000000000 Pd
   0.7500000000000000    0.2500000000000000    0.2500000000000000 Pd
