Ca8 Al24
1.0
  10.4111103292639502    0.0000000000000000   -2.7072828745821456
  -0.0008874488924618   10.4953498240816323   -0.0006861923221118
   0.0000000000000000    0.0000000000000000    5.7531480789184570
Ca Al
8 24
direct
   0.5000000000000000    0.9140930175781250    0.2500000000000000 Ca
   0.5000000000000000    0.0859069824218750    0.7500000000000000 Ca
   0.0000000000000000    0.4140930175781250    0.2500000000000000 Ca
   0.0000000000000000    0.5859069824218750    0.7500000000000000 Ca
   0.5000000000000000    0.5223083496093750    0.2500000000000000 Ca
   0.5000000000000000    0.4776916503906250    0.7500000000000000 Ca
   0.0000000000000000    0.0223083496093750    0.2500000000000000 Ca
   0.0000000000000000    0.9776916503906250    0.7500000000000000 Ca
   0.7695312500000000    0.4173355102539062    0.7238922119140625 Al
   0.2304687500000000    0.4173355102539062    0.7761077880859375 Al
   0.2304687500000000    0.5826644897460938    0.2761077880859375 Al
   0.7695312500000000    0.5826644897460938    0.2238922119140625 Al
   0.2695312500000000    0.9173355102539062    0.7238922119140625 Al
   0.7304687500000000    0.9173355102539062    0.7761077880859375 Al
   0.7304687500000000    0.0826644897460938    0.2761077880859375 Al
   0.2695312500000000    0.0826644897460938    0.2238922119140625 Al
   0.3105468750000000    0.3311462402343750    0.3823242187500000 Al
   0.6894531250000000    0.3311462402343750    0.1176757812500000 Al
   0.6894531250000000    0.6688537597656250    0.6176757812500000 Al
   0.3105468750000000    0.6688537597656250    0.8823242187500000 Al
   0.8105468750000000    0.8311462402343750    0.3823242187500000 Al
   0.1894531250000000    0.8311462402343750    0.1176757812500000 Al
   0.1894531250000000    0.1688537597656250    0.6176757812500000 Al
   0.8105468750000000    0.1688537597656250    0.8823242187500000 Al
   0.4086914062500000    0.2451477050781250    0.0473022460937500 Al
   0.5913085937500000    0.2451477050781250    0.4526977539062500 Al
   0.5913085937500000    0.7548522949218750    0.9526977539062500 Al
   0.4086914062500000    0.7548522949218750    0.5473022460937500 Al
   0.9086914062500000    0.7451477050781250    0.0473022460937500 Al
   0.0913085937500000    0.7451477050781250    0.4526977539062500 Al
   0.0913085937500000    0.2548522949218750    0.9526977539062500 Al
   0.9086914062500000    0.2548522949218750    0.5473022460937500 Al
