Li2 Mg8
1.0
   5.4780492665509781    0.0000000000000000   -0.0003581581744702
  -0.0003316289926647    5.0719523213049564   -0.0003316073112693
   0.0000000000000000    0.0000000000000000    7.6133522987365723
Li Mg
2 8
direct
   0.0000000000000000    0.5000000000000000    0.3677978515625000 Li
   0.5000000000000000    0.0000000000000000    0.8677978515625000 Li
   0.7587890625000000    0.0000000000000000    0.1798706054687500 Mg
   0.2412109375000000    0.0000000000000000    0.1798706054687500 Mg
   0.2587890625000000    0.5000000000000000    0.6798706054687500 Mg
   0.7412109375000000    0.5000000000000000    0.6798706054687500 Mg
   0.2547607421875000    0.5000000000000000    0.0263977050781250 Mg
   0.7452392578125000    0.5000000000000000    0.0263977050781250 Mg
   0.7547607421875000    0.0000000000000000    0.5263977050781250 Mg
   0.2452392578125000    0.0000000000000000    0.5263977050781250 Mg
