Na4 Cu16 S16
1.0
  13.2056051871246414    0.0000000000000000   -5.8701952921734391
  -0.0004668064559612    4.6396507882861489   -0.0003033431763875
   0.0000000000000000    0.0000000000000000    9.0281524658203125
Na S Cu
4 16 16
direct
   0.6805725097656250    0.5593261718750000    0.1062927246093750 Na
   0.3194274902343750    0.5593261718750000    0.8937072753906250 Na
   0.1805725097656250    0.0593261718750000    0.1062927246093750 Na
   0.8194274902343750    0.0593261718750000    0.8937072753906250 Na
   0.6212425231933594    0.0610351562500000    0.9483032226562500 S
   0.3787574768066406    0.0610351562500000    0.0516967773437500 S
   0.1212425231933594    0.5610351562500000    0.9483032226562500 S
   0.8787574768066406    0.5610351562500000    0.0516967773437500 S
   0.9757156372070312    0.0848388671875000    0.7728271484375000 S
   0.0242843627929688    0.0848388671875000    0.2271728515625000 S
   0.4757156372070312    0.5848388671875000    0.7728271484375000 S
   0.5242843627929688    0.5848388671875000    0.2271728515625000 S
   0.3823242187500000    0.0746002197265625    0.4425659179687500 S
   0.6176757812500000    0.0746002197265625    0.5574340820312500 S
   0.8823242187500000    0.5746002197265625    0.4425659179687500 S
   0.1176757812500000    0.5746002197265625    0.5574340820312500 S
   0.2643737792968750    0.0775146484375000    0.6926269531250000 S
   0.7356262207031250    0.0775146484375000    0.3073730468750000 S
   0.7643737792968750    0.5775146484375000    0.6926269531250000 S
   0.2356262207031250    0.5775146484375000    0.3073730468750000 S
   0.4840087890625000    0.2713012695312500    0.3444824218750000 Cu
   0.5159912109375000    0.2713012695312500    0.6555175781250000 Cu
   0.9840087890625000    0.7713012695312500    0.3444824218750000 Cu
   0.0159912109375000    0.7713012695312500    0.6555175781250000 Cu
   0.8753356933593750    0.2623291015625000    0.2501831054687500 Cu
   0.1246643066406250    0.2623291015625000    0.7498168945312500 Cu
   0.3753356933593750    0.7623291015625000    0.2501831054687500 Cu
   0.6246643066406250    0.7623291015625000    0.7498168945312500 Cu
   0.8092956542968750    0.2600097656250000    0.5539665222167969 Cu
   0.1907043457031250    0.2600097656250000    0.4460334777832031 Cu
   0.3092956542968750    0.7600097656250000    0.5539665222167969 Cu
   0.6907043457031250    0.7600097656250000    0.4460334777832031 Cu
   0.0520019531250000    0.5445556640625000    0.1542968750000000 Cu
   0.9479980468750000    0.5445556640625000    0.8457031250000000 Cu
   0.5520019531250000    0.0445556640625000    0.1542968750000000 Cu
   0.4479980468750000    0.0445556640625000    0.8457031250000000 Cu
