Hf1 Ti1 Be1 Cu1
1.0
   3.8929517185930007    0.0000000000000000   -0.0002545235380312
  -0.0002691012596192    4.1156496825707913   -0.0002690836661912
   0.0000000000000000    0.0000000000000000    4.7313504219055176
Hf Be Cu Ti
1 1 1 1
direct
   0.0000000000000000    0.0000000000000000    0.0731811523437500 Hf
   0.0000000000000000    0.5000000000000000    0.4863281250000000 Be
   0.5000000000000000    0.0000000000000000    0.5057373046875000 Cu
   0.5000000000000000    0.5000000000000000    0.8843994140625000 Ti
