Te6 Mo3 W1 S2
1.0
   4.4824480914633122    0.0000000000000000   -0.0002930651674491
  -2.2409697508744730    3.8820607244514731   -0.0002930651674491
   0.0000000000000000    0.0000000000000000   36.9442481994628906
Mo Te W S Mo Te
1 4 1 2 2 2
direct
   0.0000000000000000    0.0000000000000000    0.1191406250000000 Mo
   0.0000000000000000    0.0000000000000000    0.2604980468750000 Te
   0.0000000000000000    0.0000000000000000    0.3481445312500000 Te
   0.0000000000000000    0.0000000000000000    0.6402587890625000 Te
   0.0000000000000000    0.0000000000000000    0.7230224609375000 Te
   0.0000000000000000    0.0000000000000000    0.4865570068359375 W
   0.3333333432674408    0.6666666865348816    0.1531982421875000 S
   0.3333333432674408    0.6666666865348816    0.4525756835937500 S
   0.3333333432674408    0.6666666865348816    0.3006591796875000 Mo
   0.3333333432674408    0.6666666865348816    0.6734695434570312 Mo
   0.3333333432674408    0.6666666865348816    0.0667724609375000 Te
   0.3333333432674408    0.6666666865348816    0.5292968750000000 Te
