P4 Pd14
1.0
   5.3093080852239387    0.0000000000000000   -1.0521144716025288
  -0.0004433968546773    5.5697488489257339   -0.0003641535497847
   0.0000000000000000    0.0000000000000000   10.5346488952636719
Pd P Pd
2 4 12
direct
   0.5000000000000000    0.0000000000000000    0.0000000000000000 Pd
   0.0000000000000000    0.5000000000000000    0.0000000000000000 Pd
   0.1197509765625000    0.0000000000000000    0.6781921386718750 P
   0.8802490234375000    0.0000000000000000    0.3218078613281250 P
   0.6197509765625000    0.5000000000000000    0.6781921386718750 P
   0.3802490234375000    0.5000000000000000    0.3218078613281250 P
   0.2453918457031250    0.0000000000000000    0.4710083007812500 Pd
   0.7546081542968750    0.0000000000000000    0.5289916992187500 Pd
   0.7453918457031250    0.5000000000000000    0.4710083007812500 Pd
   0.2546081542968750    0.5000000000000000    0.5289916992187500 Pd
   0.9865112304687500    0.0000000000000000    0.1303100585937500 Pd
   0.0134887695312500    0.0000000000000000    0.8696899414062500 Pd
   0.4865112304687500    0.5000000000000000    0.1303100585937500 Pd
   0.5134887695312500    0.5000000000000000    0.8696899414062500 Pd
   0.5307769775390625    0.0000000000000000    0.7319335937500000 Pd
   0.4692230224609375    0.0000000000000000    0.2680664062500000 Pd
   0.0307769775390625    0.5000000000000000    0.7319335937500000 Pd
   0.9692230224609375    0.5000000000000000    0.2680664062500000 Pd
