Ti4 S8
1.0
  10.4669520479499152    0.0000000000000000   -3.6888192493451317
  -0.0004660449751804    5.0457515393480783   -0.0003298942889956
   0.0000000000000000    0.0000000000000000    7.0762491226196289
S Ti
8 4
direct
   0.6506195068359375    0.0000000000000000    0.8811035156250000 S
   0.3493804931640625    0.0000000000000000    0.1188964843750000 S
   0.1506195068359375    0.5000000000000000    0.8811035156250000 S
   0.8493804931640625    0.5000000000000000    0.1188964843750000 S
   0.1115722656250000    0.0000000000000000    0.4055786132812500 S
   0.8884277343750000    0.0000000000000000    0.5944213867187500 S
   0.6115722656250000    0.5000000000000000    0.4055786132812500 S
   0.3884277343750000    0.5000000000000000    0.5944213867187500 S
   0.1329345703125000    0.0000000000000000    0.7845458984375000 Ti
   0.8670654296875000    0.0000000000000000    0.2154541015625000 Ti
   0.6329345703125000    0.5000000000000000    0.7845458984375000 Ti
   0.3670654296875000    0.5000000000000000    0.2154541015625000 Ti
