La6 Ti2 Sb10
1.0
   8.9495515632084430    0.0000000000000000   -0.0005851270943797
  -4.4742680624092230    7.7508321158590130   -0.0005851270943797
   0.0000000000000000    0.0000000000000000    6.1068520545959473
Ti Sb La
2 10 6
direct
   0.0000000000000000    0.0000000000000000    0.0000000000000000 Ti
   0.0000000000000000    0.0000000000000000    0.5000000000000000 Ti
   0.6666666865348816    0.3333333432674408    0.0000000000000000 Sb
   0.3333333134651184    0.6666666269302368    0.5000000000000000 Sb
   0.3333333134651184    0.6666666269302368    0.0000000000000000 Sb
   0.6666666865348816    0.3333333432674408    0.5000000000000000 Sb
   0.2592773437500000    0.0000000000000000    0.2500000000000000 Sb
   0.0000000000000000    0.2592773437500000    0.2500000000000000 Sb
   0.7407226562500000    0.7407226562500000    0.2500000000000000 Sb
   0.7407226562500000    0.0000000000000000    0.7500000000000000 Sb
   0.0000000000000000    0.7407226562500000    0.7500000000000000 Sb
   0.2592773437500000    0.2592773437500000    0.7500000000000000 Sb
   0.3836669921875000    0.3836669921875000    0.2500000000000000 La
   0.6163330078125000    0.0000000000000000    0.2500000000000000 La
   0.0000000000000000    0.6163330078125000    0.2500000000000000 La
   0.6163330078125000    0.6163330078125000    0.7500000000000000 La
   0.3836669921875000    0.0000000000000000    0.7500000000000000 La
   0.0000000000000000    0.3836669921875000    0.7500000000000000 La
