Na1 Hg3
1.0
   4.1287517459363121    0.0000000000000000   -0.0002699402864437
  -0.0002699579358799    4.1287517371107283   -0.0002699402864437
   0.0000000000000000    0.0000000000000000    4.1287517547607422
Na Hg
1 3
direct
   0.0000000000000000    0.0000000000000000    0.0000000000000000 Na
   0.5000000000000000    0.5000000000000000    0.0000000000000000 Hg
   0.0000000000000000    0.5000000000000000    0.5000000000000000 Hg
   0.5000000000000000    0.0000000000000000    0.5000000000000000 Hg
