Tl2 Co2 Ni2 Te8
1.0
  11.6861595719166722    0.0000000000000000   -0.1736353333465372
  -0.0002626796104880    3.9584469623466574   -0.0002588056572528
   0.0000000000000000    0.0000000000000000    8.0456504821777344
Co Ni Te Tl
2 2 8 2
direct
   0.4892578125000000    0.0000000000000000    0.7324829101562500 Co
   0.9892578125000000    0.5000000000000000    0.7324829101562500 Co
   0.0644531250000000    0.0000000000000000    0.6058959960937500 Ni
   0.5644531250000000    0.5000000000000000    0.6058959960937500 Ni
   0.9263305664062500    0.0000000000000000    0.8918457031250000 Te
   0.4263305664062500    0.5000000000000000    0.8918457031250000 Te
   0.5974731445312500    0.0000000000000000    0.4279174804687500 Te
   0.0974731445312500    0.5000000000000000    0.4279174804687500 Te
   0.5722503662109375    0.0000000000000000    0.0373535156250000 Te
   0.0722503662109375    0.5000000000000000    0.0373535156250000 Te
   0.2731933593750000    0.0000000000000000    0.6413574218750000 Te
   0.7731933593750000    0.5000000000000000    0.6413574218750000 Te
   0.2944335937500000    0.0000000000000000    0.2038574218750000 Tl
   0.7944335937500000    0.5000000000000000    0.2038574218750000 Tl
