Cu4 Ge6 Se4
1.0
   4.0763511570590509    0.0000000000000000   -0.0002665143042481
  -0.0002665317296842    4.0763511483454788   -0.0002665143042481
   0.0000000000000000    0.0000000000000000   22.4425449371337891
Ge Se Cu Ge
2 4 4 4
direct
   0.5000000000000000    0.5000000000000000    0.0000000000000000 Ge
   0.0000000000000000    0.0000000000000000    0.5000000000000000 Ge
   0.0000000000000000    0.5000000000000000    0.0000000000000000 Se
   0.5000000000000000    0.0000000000000000    0.0000000000000000 Se
   0.5000000000000000    0.0000000000000000    0.5000000000000000 Se
   0.0000000000000000    0.5000000000000000    0.5000000000000000 Se
   0.0000000000000000    0.5000000000000000    0.2500000000000000 Cu
   0.5000000000000000    0.0000000000000000    0.2500000000000000 Cu
   0.0000000000000000    0.5000000000000000    0.7500000000000000 Cu
   0.5000000000000000    0.0000000000000000    0.7500000000000000 Cu
   0.5000000000000000    0.5000000000000000    0.3176269531250000 Ge
   0.5000000000000000    0.5000000000000000    0.6823730468750000 Ge
   0.0000000000000000    0.0000000000000000    0.8176269531250000 Ge
   0.0000000000000000    0.0000000000000000    0.1823730468750000 Ge
