Dy2 Er8 S16
1.0
  16.7349223293450216    0.0000000000000000   -4.0953967820536485
  -0.0003221385790758    3.8667473576198574   -0.0002528102819383
   0.0000000000000000    0.0000000000000000   10.5215511322021484
S Dy Er
16 2 8
direct
   0.4696044921875000    0.0000000000000000    0.0013427734375000 S
   0.9696044921875000    0.5000000000000000    0.0013427734375000 S
   0.9782714843750000    0.0000000000000000    0.5567626953125000 S
   0.4782714843750000    0.5000000000000000    0.5567626953125000 S
   0.8294677734375000    0.0000000000000000    0.7667236328125000 S
   0.3294677734375000    0.5000000000000000    0.7667236328125000 S
   0.6337890625000000    0.0000000000000000    0.2407226562500000 S
   0.1337890625000000    0.5000000000000000    0.2407226562500000 S
   0.8610229492187500    0.0000000000000000    0.2943115234375000 S
   0.3610229492187500    0.5000000000000000    0.2943115234375000 S
   0.6033935546875000    0.0000000000000000    0.7801513671875000 S
   0.1033935546875000    0.5000000000000000    0.7801513671875000 S
   0.2027587890625000    0.0000000000000000    0.5207519531250000 S
   0.7027587890625000    0.5000000000000000    0.5207519531250000 S
   0.2533569335937500    0.0000000000000000    0.0338745117187500 S
   0.7533569335937500    0.5000000000000000    0.0338745117187500 S
   0.0917053222656250    0.0000000000000000    0.9727783203125000 Dy
   0.5917053222656250    0.5000000000000000    0.9727783203125000 Dy
   0.2514801025390625    0.0000000000000000    0.2958984375000000 Er
   0.7514801025390625    0.5000000000000000    0.2958984375000000 Er
   0.8664093017578125    0.0000000000000000    0.0364990234375000 Er
   0.3664093017578125    0.5000000000000000    0.0364990234375000 Er
   0.5906524658203125    0.0000000000000000    0.5203857421875000 Er
   0.0906524658203125    0.5000000000000000    0.5203857421875000 Er
   0.4309082031250000    0.0000000000000000    0.7270507812500000 Er
   0.9309082031250000    0.5000000000000000    0.7270507812500000 Er
