Ba2 Al4 O8
1.0
   5.4649510266802919    0.0000000000000000   -0.0003573018036249
  -2.7321654798690411    4.7329654039117957   -0.0003573018036249
   0.0000000000000000    0.0000000000000000    6.4474501609802246
Ba O Al O
2 2 4 6
direct
   0.0000000000000000    0.0000000000000000    0.0000000000000000 Ba
   0.0000000000000000    0.0000000000000000    0.5000000000000000 Ba
   0.6666666865348816    0.3333333432674408    0.5000000000000000 O
   0.3333333134651184    0.6666666269302368    0.5000000000000000 O
   0.6666666865348816    0.3333333432674408    0.2510986328125000 Al
   0.6666666269302368    0.3333333134651184    0.7489013671875000 Al
   0.3333333134651184    0.6666666269302368    0.7489013671875000 Al
   0.3333333432674408    0.6666666865348816    0.2510986328125000 Al
   0.6036376953125000    0.6036376953125000    0.8106689453125000 O
   0.3963623046875000    0.0000000000000000    0.8106689453125000 O
   0.0000000000000000    0.3963623046875000    0.8106689453125000 O
   0.3963623046875000    0.3963623046875000    0.1893310546875000 O
   0.0000000000000000    0.6036376953125000    0.1893310546875000 O
   0.6036376953125000    0.0000000000000000    0.1893310546875000 O
