Ba4 I8 Br4
1.0
   8.7006530575758667    0.0000000000000000   -0.0005688539595340
  -0.0003461900572168    5.2946500551857092   -0.0003461674238413
   0.0000000000000000    0.0000000000000000   15.0541496276855469
Br I Ba
4 8 4
direct
   0.2495875358581543    0.2500000000000000    0.2249755859375000 Br
   0.2504124641418457    0.7500000000000000    0.7249755859375000 Br
   0.7504124641418457    0.7500000000000000    0.7750244140625000 Br
   0.7495875358581543    0.2500000000000000    0.2750244140625000 Br
   0.9821777343750000    0.2500000000000000    0.6053466796875000 I
   0.5178222656250000    0.7500000000000000    0.1053466796875000 I
   0.0178222656250000    0.7500000000000000    0.3946533203125000 I
   0.4821777343750000    0.2500000000000000    0.8946533203125000 I
   0.0248413085937500    0.2500000000000000    0.9005966186523438 I
   0.4751586914062500    0.7500000000000000    0.4005966186523438 I
   0.9751586914062500    0.7500000000000000    0.0994033813476562 I
   0.5248413085937500    0.2500000000000000    0.5994033813476562 I
   0.2453842163085938    0.2500000000000000    0.4373779296875000 Ba
   0.2546157836914062    0.7500000000000000    0.9373779296875000 Ba
   0.7546157836914062    0.7500000000000000    0.5626220703125000 Ba
   0.7453842163085938    0.2500000000000000    0.0626220703125000 Ba
