Rb3 Ho3 S6
1.0
   4.1942510515214178    0.0000000000000000   -0.0002742226706604
  -2.0968875806801694    3.6324653277323633   -0.0002742226706604
   0.0000000000000000    0.0000000000000000   23.5691528320312500
Rb Ho S
3 3 6
direct
   0.0000000000000000    0.0000000000000000    0.0000000000000000 Rb
   0.6666666865348816    0.3333333432674408    0.3333333432674408 Rb
   0.3333333432674408    0.6666666865348816    0.6666666865348816 Rb
   0.3333333432674408    0.6666666865348816    0.1666666716337204 Ho
   0.6666666865348816    0.3333333432674408    0.8333333134651184 Ho
   0.0000000000000000    0.0000000000000000    0.5000000000000000 Ho
   0.6666666865348816    0.3333333432674408    0.1036891937255859 S
   0.3333333432674408    0.6666666865348816    0.8963108062744141 S
   0.3333333730697632    0.6666666865348816    0.4370225369930267 S
   0.0000000000000000    0.0000000000000000    0.2296441495418549 S
   0.0000000000000000    0.0000000000000000    0.7703558802604675 S
   0.6666666865348816    0.3333333730697632    0.5629774928092957 S
