Li6 Ti2 Mn2 O10
1.0
   4.8754480699706093    0.0000000000000000    0.0054247607213548
  -0.0004039587128353    6.1854495738086444   -0.0004044084352954
   0.0000000000000000    0.0000000000000000    6.5915465354919434
Li O Ti Mn
6 10 2 2
direct
   0.6491088867187500    0.2382812500000000    0.4801635742187500 Li
   0.3508911132812500    0.7382812500000000    0.5198364257812500 Li
   0.8710021972656250    0.9443359375000000    0.9470520019531250 Li
   0.1289978027343750    0.4443359375000000    0.0529479980468750 Li
   0.4003624916076660    0.7679443359375000    0.9844360351562500 Li
   0.5996375083923340    0.2679443359375000    0.0155639648437500 Li
   0.8025817871093750    0.2142143249511719    0.7574462890625000 O
   0.1974182128906250    0.7142143249511719    0.2425537109375000 O
   0.2728576660156250    0.0873565673828125    0.0205059051513672 O
   0.7271423339843750    0.5873565673828125    0.9794940948486328 O
   0.2923431396484375    0.0737762451171875    0.4754791259765625 O
   0.7076568603515625    0.5737762451171875    0.5245208740234375 O
   0.8850555419921875    0.2836151123046875    0.2278442382812500 O
   0.1149444580078125    0.7836151123046875    0.7721557617187500 O
   0.2525939941406250    0.4100646972656250    0.7722015380859375 O
   0.7474060058593750    0.9100646972656250    0.2277984619140625 O
   0.0984268188476562    0.0243225097656250    0.2585830688476562 Ti
   0.9015731811523438    0.5243225097656250    0.7414169311523438 Ti
   0.8173828125000000    0.6165161132812500    0.2624816894531250 Mn
   0.1826171875000000    0.1165161132812500    0.7375183105468750 Mn
