Pm4 Y4 Cu8
1.0
   6.9059519620159504    0.0000000000000000   -0.0004515153163732
  -0.0004515448376828    6.9059519472538478   -0.0004515153163732
   0.0000000000000000    0.0000000000000000    6.9059519767761230
Y Pm Cu
4 4 8
direct
   0.0000000000000000    0.0000000000000000    0.0000000000000000 Y
   0.0000000000000000    0.5000000000000000    0.5000000000000000 Y
   0.5000000000000000    0.0000000000000000    0.5000000000000000 Y
   0.5000000000000000    0.5000000000000000    0.0000000000000000 Y
   0.5000000000000000    0.0000000000000000    0.0000000000000000 Pm
   0.0000000000000000    0.5000000000000000    0.0000000000000000 Pm
   0.0000000000000000    0.0000000000000000    0.5000000000000000 Pm
   0.5000000000000000    0.5000000000000000    0.5000000000000000 Pm
   0.2500000000000000    0.2500000000000000    0.2500000000000000 Cu
   0.7500000000000000    0.7500000000000000    0.2500000000000000 Cu
   0.7500000000000000    0.2500000000000000    0.7500000000000000 Cu
   0.2500000000000000    0.7500000000000000    0.7500000000000000 Cu
   0.2500000000000000    0.2500000000000000    0.7500000000000000 Cu
   0.7500000000000000    0.7500000000000000    0.7500000000000000 Cu
   0.2500000000000000    0.7500000000000000    0.2500000000000000 Cu
   0.7500000000000000    0.2500000000000000    0.2500000000000000 Cu
