Ba2 Ti8 O4
1.0
   6.7094507074005350    0.0000000000000000   -0.0004386679454917
  -0.0004386966268051    6.7094506930584723   -0.0004386679454917
   0.0000000000000000    0.0000000000000000    4.3514499664306641
Ba O Ti
2 4 8
direct
   0.0000000000000000    0.0000000000000000    0.0000000000000000 Ba
   0.5000000000000000    0.5000000000000000    0.5000000000000000 Ba
   0.2043457031250000    0.2956542968750000    0.2500000000000000 O
   0.7956542968750000    0.7043457031250000    0.2500000000000000 O
   0.2956542968750000    0.7956542968750000    0.7500000000000000 O
   0.7043457031250000    0.2043457031250000    0.7500000000000000 O
   0.6122245788574219    0.8877754211425781    0.2500000000000000 Ti
   0.3877754211425781    0.1122245788574219    0.2500000000000000 Ti
   0.8877754211425781    0.3877754211425781    0.7500000000000000 Ti
   0.1122245788574219    0.6122245788574219    0.7500000000000000 Ti
   0.9045410156250000    0.5954589843750000    0.2500000000000000 Ti
   0.0954589843750000    0.4045410156250000    0.2500000000000000 Ti
   0.5954589843750000    0.0954589843750000    0.7500000000000000 Ti
   0.4045410156250000    0.9045410156250000    0.7500000000000000 Ti
