Gd4 Cu4 Br8
1.0
   5.4246115048895973    0.0000000000000000   -2.4437518065599417
  -0.0006654907358244    6.5784520625690686   -0.0004301031770583
   0.0000000000000000    0.0000000000000000   11.2944459915161133
Cu Br Gd
4 8 4
direct
   0.1156921386718750    0.6481933593750000    0.5889587402343750 Cu
   0.8843078613281250    0.1481933593750000    0.9110412597656250 Cu
   0.8843078613281250    0.3518066406250000    0.4110412597656250 Cu
   0.1156921386718750    0.8518066406250000    0.0889587402343750 Cu
   0.7650146484375000    0.1181030273437500    0.1211395263671875 Br
   0.2349853515625000    0.6181030273437500    0.3788604736328125 Br
   0.2349853515625000    0.8818969726562500    0.8788604736328125 Br
   0.7650146484375000    0.3818969726562500    0.6211395263671875 Br
   0.7322692871093750    0.6269073486328125    0.9060401916503906 Br
   0.2677307128906250    0.1269073486328125    0.5939598083496094 Br
   0.2677307128906250    0.3730926513671875    0.0939598083496094 Br
   0.7322692871093750    0.8730926513671875    0.4060401916503906 Br
   0.2674560546875000    0.1235046386718750    0.3333435058593750 Gd
   0.7325439453125000    0.6235046386718750    0.1666564941406250 Gd
   0.7325439453125000    0.8764953613281250    0.6666564941406250 Gd
   0.2674560546875000    0.3764953613281250    0.8333435058593750 Gd
