Nd1 Al1 Zn1 Si1
1.0
   4.2990488914158398    0.0000000000000000   -0.0002810744168201
  -2.1492805553155363    3.7232263516104287   -0.0002810744168201
   0.0000000000000000    0.0000000000000000    5.6876525878906250
Si Zn Al Nd
1 1 1 1
direct
   0.0000000000000000    0.0000000000000000    0.7332458496093750 Si
   0.0000000000000000    0.0000000000000000    0.3255004882812500 Zn
   0.3333333432674408    0.6666666865348816    0.5799560546875000 Al
   0.6666666865348816    0.3333333432674408    0.0207672119140625 Nd
