Th2 S2 O2
1.0
   4.0108480367766886    0.0000000000000000   -0.0002622316706242
  -0.0002622488160500    4.0108480282031351   -0.0002622316706242
   0.0000000000000000    0.0000000000000000    6.6701517105102539
O S Th
2 2 2
direct
   0.7500000000000000    0.2500000000000000    0.0000000000000000 O
   0.2500000000000000    0.7500000000000000    0.0000000000000000 O
   0.7500000000000000    0.7500000000000000    0.3687133789062500 S
   0.2500000000000000    0.2500000000000000    0.6312866210937500 S
   0.2500000000000000    0.2500000000000000    0.1878051757812500 Th
   0.7500000000000000    0.7500000000000000    0.8121948242187500 Th
