K8 Tl4 Bi4 Cl24
1.0
  10.6263522874688370    0.0000000000000000   -0.0006947573399524
  -0.0006948027650926   10.6263522647540398   -0.0006947573399524
   0.0000000000000000    0.0000000000000000   10.6263523101806641
Bi Tl K Cl
4 4 8 24
direct
   0.0000000000000000    0.0000000000000000    0.0000000000000000 Bi
   0.0000000000000000    0.5000000000000000    0.5000000000000000 Bi
   0.5000000000000000    0.0000000000000000    0.5000000000000000 Bi
   0.5000000000000000    0.5000000000000000    0.0000000000000000 Bi
   0.5000000000000000    0.0000000000000000    0.0000000000000000 Tl
   0.0000000000000000    0.5000000000000000    0.0000000000000000 Tl
   0.0000000000000000    0.0000000000000000    0.5000000000000000 Tl
   0.5000000000000000    0.5000000000000000    0.5000000000000000 Tl
   0.2500000000000000    0.2500000000000000    0.2500000000000000 K
   0.7500000000000000    0.7500000000000000    0.2500000000000000 K
   0.7500000000000000    0.2500000000000000    0.7500000000000000 K
   0.2500000000000000    0.7500000000000000    0.7500000000000000 K
   0.2500000000000000    0.2500000000000000    0.7500000000000000 K
   0.7500000000000000    0.7500000000000000    0.7500000000000000 K
   0.2500000000000000    0.7500000000000000    0.2500000000000000 K
   0.7500000000000000    0.2500000000000000    0.2500000000000000 K
   0.2406005859375000    0.0000000000000000    0.0000000000000000 Cl
   0.7593994140625000    0.0000000000000000    0.0000000000000000 Cl
   0.0000000000000000    0.2406005859375000    0.0000000000000000 Cl
   0.0000000000000000    0.7593994140625000    0.0000000000000000 Cl
   0.0000000000000000    0.0000000000000000    0.2406005859375000 Cl
   0.0000000000000000    0.0000000000000000    0.7593994140625000 Cl
   0.2406005859375000    0.5000000000000000    0.5000000000000000 Cl
   0.7593994140625000    0.5000000000000000    0.5000000000000000 Cl
   0.0000000000000000    0.7406005859375000    0.5000000000000000 Cl
   0.0000000000000000    0.2593994140625000    0.5000000000000000 Cl
   0.0000000000000000    0.5000000000000000    0.7406005859375000 Cl
   0.0000000000000000    0.5000000000000000    0.2593994140625000 Cl
   0.7406005859375000    0.0000000000000000    0.5000000000000000 Cl
   0.2593994140625000    0.0000000000000000    0.5000000000000000 Cl
   0.5000000000000000    0.2406005859375000    0.5000000000000000 Cl
   0.5000000000000000    0.7593994140625000    0.5000000000000000 Cl
   0.5000000000000000    0.0000000000000000    0.7406005859375000 Cl
   0.5000000000000000    0.0000000000000000    0.2593994140625000 Cl
   0.7406005859375000    0.5000000000000000    0.0000000000000000 Cl
   0.2593994140625000    0.5000000000000000    0.0000000000000000 Cl
   0.5000000000000000    0.7406005859375000    0.0000000000000000 Cl
   0.5000000000000000    0.2593994140625000    0.0000000000000000 Cl
   0.5000000000000000    0.5000000000000000    0.2406005859375000 Cl
   0.5000000000000000    0.5000000000000000    0.7593994140625000 Cl
