Ag8 Au2
1.0
   8.2020686240032159    0.0000000000000000   -4.8702736406043332
  -0.0004381166639445    3.8143505716974695   -0.0002493845491500
   0.0000000000000000    0.0000000000000000    6.9976515769958496
Au Ag
2 8
direct
   0.0000000000000000    0.0000000000000000    0.0000000000000000 Au
   0.5000000000000000    0.5000000000000000    0.0000000000000000 Au
   0.2899169921875000    0.0000000000000000    0.6694946289062500 Ag
   0.7100830078125000    0.0000000000000000    0.3305053710937500 Ag
   0.7899169921875000    0.5000000000000000    0.6694946289062500 Ag
   0.2100830078125000    0.5000000000000000    0.3305053710937500 Ag
   0.3581542968750000    0.0000000000000000    0.1711425781250000 Ag
   0.6418457031250000    0.0000000000000000    0.8288574218750000 Ag
   0.8581542968750000    0.5000000000000000    0.1711425781250000 Ag
   0.1418457031250000    0.5000000000000000    0.8288574218750000 Ag
