Sr2 Cl2 O4
1.0
   4.0239500913446324    0.0000000000000000   -0.0002630882908767
  -0.0002631054923107    4.0239500827430721   -0.0002630882908767
   0.0000000000000000    0.0000000000000000   12.2376470565795898
Cl Sr O
2 2 4
direct
   0.0000000000000000    0.0000000000000000    0.0000000000000000 Cl
   0.5000000000000000    0.5000000000000000    0.5000000000000000 Cl
   0.5000000000000000    0.5000000000000000    0.0000000000000000 Sr
   0.0000000000000000    0.0000000000000000    0.5000000000000000 Sr
   0.0000000000000000    0.5000000000000000    0.2500000000000000 O
   0.5000000000000000    0.0000000000000000    0.2500000000000000 O
   0.0000000000000000    0.5000000000000000    0.7500000000000000 O
   0.5000000000000000    0.0000000000000000    0.7500000000000000 O
