Tl2 Au2 F6
1.0
   5.5566506267040277    0.0000000000000000   -0.0003632971789394
  -2.7780100776485095    4.8123825903323176   -0.0003632971789394
   0.0000000000000000    0.0000000000000000    7.8098497390747070
Au Tl F
2 2 6
direct
   0.0000000000000000    0.0000000000000000    0.0000000000000000 Au
   0.0000000000000000    0.0000000000000000    0.5000000000000000 Au
   0.6666666865348816    0.3333333432674408    0.3229980468750000 Tl
   0.3333333432674408    0.6666666865348816    0.6770019531250000 Tl
   0.3452148437500000    0.0000000000000000    0.0000000000000000 F
   0.0000000000000000    0.3452148437500000    0.0000000000000000 F
   0.6547851562500000    0.6547851562500000    0.0000000000000000 F
   0.6547851562500000    0.0000000000000000    0.0000000000000000 F
   0.0000000000000000    0.6547851562500000    0.0000000000000000 F
   0.3452148437500000    0.3452148437500000    0.0000000000000000 F
