Eu8 In4 Sb4
1.0
   8.0325517482738267    0.0000000000000000   -0.0005251730918277
  -0.0005252074290848    8.0325517311035153   -0.0005251730918277
   0.0000000000000000    0.0000000000000000    8.0325517654418945
Sb In Eu
4 4 8
direct
   0.0000000000000000    0.0000000000000000    0.0000000000000000 Sb
   0.0000000000000000    0.5000000000000000    0.5000000000000000 Sb
   0.5000000000000000    0.0000000000000000    0.5000000000000000 Sb
   0.5000000000000000    0.5000000000000000    0.0000000000000000 Sb
   0.5000000000000000    0.0000000000000000    0.0000000000000000 In
   0.0000000000000000    0.5000000000000000    0.0000000000000000 In
   0.0000000000000000    0.0000000000000000    0.5000000000000000 In
   0.5000000000000000    0.5000000000000000    0.5000000000000000 In
   0.2500000000000000    0.2500000000000000    0.2500000000000000 Eu
   0.7500000000000000    0.7500000000000000    0.2500000000000000 Eu
   0.7500000000000000    0.2500000000000000    0.7500000000000000 Eu
   0.2500000000000000    0.7500000000000000    0.7500000000000000 Eu
   0.2500000000000000    0.2500000000000000    0.7500000000000000 Eu
   0.7500000000000000    0.7500000000000000    0.7500000000000000 Eu
   0.2500000000000000    0.7500000000000000    0.2500000000000000 Eu
   0.7500000000000000    0.2500000000000000    0.2500000000000000 Eu
