Hg4 P16
1.0
   7.0113461629982838    0.0000000000000000   -2.2098283353475416
  -0.0010723933752281   12.0280513028290148   -0.0007864012725263
   0.0000000000000000    0.0000000000000000    7.1810507774353027
P Hg
16 4
direct
   0.4622879028320312    0.1165771484375000    0.2423706054687500 P
   0.5377120971679688    0.6165771484375000    0.2576293945312500 P
   0.5377120971679688    0.8834228515625000    0.7576293945312500 P
   0.4622879028320312    0.3834228515625000    0.7423706054687500 P
   0.7185668945312500    0.0373382568359375    0.8324508666992188 P
   0.2814331054687500    0.5373382568359375    0.6675491333007812 P
   0.2814331054687500    0.9626617431640625    0.1675491333007812 P
   0.7185668945312500    0.4626617431640625    0.3324508666992188 P
   0.9471130371093750    0.1586761474609375    0.3845520019531250 P
   0.0528869628906250    0.6586761474609375    0.1154479980468750 P
   0.0528869628906250    0.8413238525390625    0.6154479980468750 P
   0.9471130371093750    0.3413238525390625    0.8845520019531250 P
   0.3070373535156250    0.7402038574218750    0.6563720703125000 P
   0.6929626464843750    0.2402038574218750    0.8436279296875000 P
   0.6929626464843750    0.2597961425781250    0.3436279296875000 P
   0.3070373535156250    0.7597961425781250    0.1563720703125000 P
   0.7286376953125000    0.9091186523437500    0.3187866210937500 Hg
   0.2713623046875000    0.4091186523437500    0.1812133789062500 Hg
   0.2713623046875000    0.0908813476562500    0.6812133789062500 Hg
   0.7286376953125000    0.5908813476562500    0.8187866210937500 Hg
