Pr4 Br4 Cl8 O4
1.0
   7.1199040818653456    0.0000000000000000   -2.3427992385251470
  -0.0006901766078860    7.6395487310296675   -0.0004994783188890
   0.0000000000000000    0.0000000000000000    9.6569480895996094
O Cl Br Pr
4 8 4 4
direct
   0.4110717773437500    0.2962036132812500    0.7887725830078125 O
   0.5889282226562500    0.7962036132812500    0.7112274169921875 O
   0.5889282226562500    0.7037963867187500    0.2112274169921875 O
   0.4110717773437500    0.2037963867187500    0.2887725830078125 O
   0.6584777832031250    0.3715209960937500    0.5960998535156250 Cl
   0.3415222167968750    0.8715209960937500    0.9039001464843750 Cl
   0.3415222167968750    0.6284790039062500    0.4039001464843750 Cl
   0.6584777832031250    0.1284790039062500    0.0960998535156250 Cl
   0.0556640625000000    0.6346435546875000    0.6648559570312500 Cl
   0.9443359375000000    0.1346435546875000    0.8351440429687500 Cl
   0.9443359375000000    0.3653564453125000    0.3351440429687500 Cl
   0.0556640625000000    0.8653564453125000    0.1648559570312500 Cl
   0.2357788085937500    0.0511169433593750    0.5071105957031250 Br
   0.7642211914062500    0.5511169433593750    0.9928894042968750 Br
   0.7642211914062500    0.9488830566406250    0.4928894042968750 Br
   0.2357788085937500    0.4488830566406250    0.0071105957031250 Br
   0.5821685791015625    0.0692138671875000    0.7612609863281250 Pr
   0.4178314208984375    0.5692138671875000    0.7387390136718750 Pr
   0.4178314208984375    0.9307861328125000    0.2387390136718750 Pr
   0.5821685791015625    0.4307861328125000    0.2612609863281250 Pr
