Tb4 Zn4 Ge4
1.0
   4.2204513459600488    0.0000000000000000   -0.0002759356617581
  -2.1099862415241835    3.6551563063971204   -0.0002759356617581
   0.0000000000000000    0.0000000000000000   14.8445501327514648
Tb Zn Ge
4 4 4
direct
   0.0000000000000000    0.0000000000000000    0.0000000000000000 Tb
   0.0000000000000000    0.0000000000000000    0.5000000000000000 Tb
   0.0000000000000000    0.0000000000000000    0.2500000000000000 Tb
   0.0000000000000000    0.0000000000000000    0.7500000000000000 Tb
   0.3333333432674408    0.6666666865348816    0.3664550781250000 Zn
   0.6666666269302368    0.3333333134651184    0.8664550781250000 Zn
   0.6666666865348816    0.3333333432674408    0.6335449218750000 Zn
   0.3333333134651184    0.6666666269302368    0.1335449218750000 Zn
   0.6666666865348816    0.3333333432674408    0.1169815063476562 Ge
   0.3333333134651184    0.6666666269302368    0.6169815063476562 Ge
   0.3333333432674408    0.6666666865348816    0.8830184936523438 Ge
   0.6666666269302368    0.3333333134651184    0.3830184936523438 Ge
