U12 Ni12 Sn16
1.0
   9.1591510576945456    0.0000000000000000   -0.0005988308361064
  -0.0005988699893087    9.1591510381160255   -0.0005988308361064
   0.0000000000000000    0.0000000000000000    9.1591510772705078
U Ni Sn
12 12 16
direct
   0.2500000000000000    0.3750000000000000    0.0000000000000000 U
   0.2500000000000000    0.6250000000000000    0.5000000000000000 U
   0.7500000000000000    0.8750000000000000    0.5000000000000000 U
   0.7500000000000000    0.1250000000000000    0.0000000000000000 U
   0.0000000000000000    0.2500000000000000    0.3750000000000000 U
   0.5000000000000000    0.2500000000000000    0.6250000000000000 U
   0.5000000000000000    0.7500000000000000    0.8750000000000000 U
   0.0000000000000000    0.7500000000000000    0.1250000000000000 U
   0.3750000000000000    0.0000000000000000    0.2500000000000000 U
   0.6250000000000000    0.5000000000000000    0.2500000000000000 U
   0.8750000000000000    0.5000000000000000    0.7500000000000000 U
   0.1250000000000000    0.0000000000000000    0.7500000000000000 U
   0.5000000000000000    0.2500000000000000    0.1250000000000000 Ni
   0.0000000000000000    0.7500000000000000    0.6250000000000000 Ni
   0.5000000000000000    0.7500000000000000    0.3750000000000000 Ni
   0.0000000000000000    0.2500000000000000    0.8750000000000000 Ni
   0.1250000000000000    0.5000000000000000    0.2500000000000000 Ni
   0.6250000000000000    0.0000000000000000    0.7500000000000000 Ni
   0.3750000000000000    0.5000000000000000    0.7500000000000000 Ni
   0.8750000000000000    0.0000000000000000    0.2500000000000000 Ni
   0.2500000000000000    0.1250000000000000    0.5000000000000000 Ni
   0.7500000000000000    0.6250000000000000    0.0000000000000000 Ni
   0.7500000000000000    0.3750000000000000    0.5000000000000000 Ni
   0.2500000000000000    0.8750000000000000    0.0000000000000000 Ni
   0.0901260375976562    0.0901260375976562    0.0901260375976562 Sn
   0.4098739624023438    0.9098739624023438    0.5901260375976562 Sn
   0.9098739624023438    0.5901260375976562    0.4098739624023438 Sn
   0.5901260375976562    0.4098739624023438    0.9098739624023438 Sn
   0.3401260375976562    0.3401260375976562    0.3401260375976562 Sn
   0.1598739624023438    0.6598739624023438    0.8401260375976562 Sn
   0.8401260375976562    0.1598739624023438    0.6598739624023438 Sn
   0.6598739624023438    0.8401260375976562    0.1598739624023438 Sn
   0.5901260375976562    0.5901260375976562    0.5901260375976562 Sn
   0.9098739624023438    0.4098739624023438    0.0901260375976562 Sn
   0.4098739624023438    0.0901260375976562    0.9098739624023438 Sn
   0.0901260375976562    0.9098739624023438    0.4098739624023438 Sn
   0.8401260375976562    0.8401260375976562    0.8401260375976562 Sn
   0.6598739624023438    0.1598739624023438    0.3401260375976562 Sn
   0.3401260375976562    0.6598739624023438    0.1598739624023438 Sn
   0.1598739624023438    0.3401260375976562    0.6598739624023438 Sn
