Ce4 Mg8
1.0
   3.1331505708486462    0.0000000000000000   -0.0002048472794225
  -0.0011521959919611   17.6217498025984156   -0.0011521206631525
   0.0000000000000000    0.0000000000000000    5.1636519432067871
Mg Ce
8 4
direct
   0.5000000000000000    0.9483642578125000    0.2500000000000000 Mg
   0.5000000000000000    0.0516357421875000    0.7500000000000000 Mg
   0.0000000000000000    0.4483642578125000    0.2500000000000000 Mg
   0.0000000000000000    0.5516357421875000    0.7500000000000000 Mg
   0.5000000000000000    0.2797088623046875    0.2500000000000000 Mg
   0.5000000000000000    0.7202911376953125    0.7500000000000000 Mg
   0.0000000000000000    0.7797088623046875    0.2500000000000000 Mg
   0.0000000000000000    0.2202911376953125    0.7500000000000000 Mg
   0.0000000000000000    0.1096801757812500    0.2500000000000000 Ce
   0.0000000000000000    0.8903198242187500    0.7500000000000000 Ce
   0.5000000000000000    0.6096801757812500    0.2500000000000000 Ce
   0.5000000000000000    0.3903198242187500    0.7500000000000000 Ce
