Eu4 Cu4 As12
1.0
   4.1156496913683682    0.0000000000000000   -0.0002690836661912
  -0.0010082970777088   15.4209517773386455   -0.0010082311567907
   0.0000000000000000    0.0000000000000000    6.7356472015380859
Cu As Eu As
4 4 4 8
direct
   0.0000000000000000    0.6558837890625000    0.2500000000000000 Cu
   0.0000000000000000    0.3441162109375000    0.7500000000000000 Cu
   0.5000000000000000    0.1558837890625000    0.2500000000000000 Cu
   0.5000000000000000    0.8441162109375000    0.7500000000000000 Cu
   0.5000000000000000    0.5512390136718750    0.2500000000000000 As
   0.5000000000000000    0.4487609863281250    0.7500000000000000 As
   0.0000000000000000    0.0512390136718750    0.2500000000000000 As
   0.0000000000000000    0.9487609863281250    0.7500000000000000 As
   0.0000000000000000    0.3922119140625000    0.2500000000000000 Eu
   0.0000000000000000    0.6077880859375000    0.7500000000000000 Eu
   0.5000000000000000    0.8922119140625000    0.2500000000000000 Eu
   0.5000000000000000    0.1077880859375000    0.7500000000000000 Eu
   0.5000000000000000    0.6966552734375000    0.0488891601562500 As
   0.5000000000000000    0.3033447265625000    0.5488891601562500 As
   0.5000000000000000    0.6966552734375000    0.4511108398437500 As
   0.5000000000000000    0.3033447265625000    0.9511108398437500 As
   0.0000000000000000    0.1966552734375000    0.0488891601562500 As
   0.0000000000000000    0.8033447265625000    0.5488891601562500 As
   0.0000000000000000    0.1966552734375000    0.4511108398437500 As
   0.0000000000000000    0.8033447265625000    0.9511108398437500 As
