Ce8 Hg8
1.0
   7.6264467076378937    0.0000000000000000   -0.0004986216986365
  -0.0004986542998906    7.6264466913356683   -0.0004986216986365
   0.0000000000000000    0.0000000000000000    7.6264467239379883
Ce Hg
8 8
direct
   0.0000000000000000    0.0000000000000000    0.0000000000000000 Ce
   0.0000000000000000    0.5000000000000000    0.5000000000000000 Ce
   0.5000000000000000    0.0000000000000000    0.5000000000000000 Ce
   0.5000000000000000    0.5000000000000000    0.0000000000000000 Ce
   0.5000000000000000    0.0000000000000000    0.0000000000000000 Ce
   0.0000000000000000    0.5000000000000000    0.0000000000000000 Ce
   0.0000000000000000    0.0000000000000000    0.5000000000000000 Ce
   0.5000000000000000    0.5000000000000000    0.5000000000000000 Ce
   0.2500000000000000    0.2500000000000000    0.2500000000000000 Hg
   0.7500000000000000    0.7500000000000000    0.2500000000000000 Hg
   0.7500000000000000    0.2500000000000000    0.7500000000000000 Hg
   0.2500000000000000    0.7500000000000000    0.7500000000000000 Hg
   0.2500000000000000    0.2500000000000000    0.7500000000000000 Hg
   0.7500000000000000    0.7500000000000000    0.7500000000000000 Hg
   0.2500000000000000    0.7500000000000000    0.2500000000000000 Hg
   0.7500000000000000    0.2500000000000000    0.2500000000000000 Hg
