Sn2 Ge2 Te2 I1
1.0
   4.8623485461262002    0.0000000000000000   -0.0003179032889594
  -2.4308984259804607    4.2110766113407738   -0.0003179032889594
   0.0000000000000000    0.0000000000000000   10.7180519104003906
I Ge Te Sn
1 2 2 2
direct
   0.0000000000000000    0.0000000000000000    0.0000000000000000 I
   0.6666666865348816    0.3333333432674408    0.0000000000000000 Ge
   0.3333333134651184    0.6666666269302368    0.0000000000000000 Ge
   0.6666666865348816    0.3333333432674408    0.5000000000000000 Te
   0.3333333134651184    0.6666666269302368    0.5000000000000000 Te
   0.0000000000000000    0.0000000000000000    0.3582763671875000 Sn
   0.0000000000000000    0.0000000000000000    0.6417236328125000 Sn
