Sc4 Sn4 Pt8
1.0
   6.1854495869994919    0.0000000000000000   -0.0004044084352954
  -0.0004044348766280    6.1854495737775288   -0.0004044084352954
   0.0000000000000000    0.0000000000000000   11.2289514541625977
Sn Sc Pt
4 4 8
direct
   0.0000000000000000    0.0000000000000000    0.2500000000000000 Sn
   0.0000000000000000    0.0000000000000000    0.7500000000000000 Sn
   0.5000000000000000    0.5000000000000000    0.7500000000000000 Sn
   0.5000000000000000    0.5000000000000000    0.2500000000000000 Sn
   0.0000000000000000    0.0000000000000000    0.0000000000000000 Sc
   0.0000000000000000    0.0000000000000000    0.5000000000000000 Sc
   0.5000000000000000    0.5000000000000000    0.5000000000000000 Sc
   0.5000000000000000    0.5000000000000000    0.0000000000000000 Sc
   0.3535766601562500    0.1464233398437500    0.0000000000000000 Pt
   0.6464233398437500    0.8535766601562500    0.0000000000000000 Pt
   0.8535766601562500    0.3535766601562500    0.0000000000000000 Pt
   0.1464233398437500    0.6464233398437500    0.0000000000000000 Pt
   0.6464233398437500    0.1464233398437500    0.5000000000000000 Pt
   0.3535766601562500    0.8535766601562500    0.5000000000000000 Pt
   0.1464233398437500    0.3535766601562500    0.5000000000000000 Pt
   0.8535766601562500    0.6464233398437500    0.5000000000000000 Pt
