Li2 Fe2 Ge2 O10
1.0
   4.5096412506068093    0.0000000000000000   -2.9214665509480628
  -0.0006036336737408    5.0195512301368614   -0.0003281812978978
   0.0000000000000000    0.0000000000000000    9.0019483566284180
Li O Fe Ge
2 10 2 2
direct
   0.7457618713378906    0.2200012207031250    0.0057373046875000 Li
   0.7457618713378906    0.7799987792968750    0.5057373046875000 Li
   0.1021728515625000    0.5913085937500000    0.5198364257812500 O
   0.1021728515625000    0.4086914062500000    0.0198364257812500 O
   0.4061279296875000    0.1612548828125000    0.4184570312500000 O
   0.4061279296875000    0.8387451171875000    0.9184570312500000 O
   0.0340576171875000    0.9469547271728516    0.0790405273437500 O
   0.0340576171875000    0.0530452728271484    0.5790405273437500 O
   0.4838867187500000    0.6434936523437500    0.2689819335937500 O
   0.4838867187500000    0.3565063476562500    0.7689819335937500 O
   0.7722167968750000    0.7504272460937500    0.7539062500000000 O
   0.7722167968750000    0.2495727539062500    0.2539062500000000 O
   0.1577148437500000    0.7457275390625000    0.9975585937500000 Fe
   0.1577148437500000    0.2542724609375000    0.4975585937500000 Fe
   0.4338073730468750    0.2935256958007812    0.2411270141601562 Ge
   0.4338073730468750    0.7064743041992188    0.7411270141601562 Ge
