La20 Bi4 Pd8
1.0
   8.3076505483450340    0.0000000000000000   -0.0005431592177712
  -0.0005431947310104    8.3076505305866739   -0.0005431592177712
   0.0000000000000000    0.0000000000000000   15.2899494171142578
Bi La Pd La
4 4 8 16
direct
   0.0000000000000000    0.0000000000000000    0.2500000000000000 Bi
   0.0000000000000000    0.0000000000000000    0.7500000000000000 Bi
   0.5000000000000000    0.5000000000000000    0.7500000000000000 Bi
   0.5000000000000000    0.5000000000000000    0.2500000000000000 Bi
   0.0000000000000000    0.0000000000000000    0.0000000000000000 La
   0.0000000000000000    0.0000000000000000    0.5000000000000000 La
   0.5000000000000000    0.5000000000000000    0.5000000000000000 La
   0.5000000000000000    0.5000000000000000    0.0000000000000000 La
   0.3635559082031250    0.1364440917968750    0.0000000000000000 Pd
   0.6364440917968750    0.8635559082031250    0.0000000000000000 Pd
   0.8635559082031250    0.3635559082031250    0.0000000000000000 Pd
   0.1364440917968750    0.6364440917968750    0.0000000000000000 Pd
   0.6364440917968750    0.1364440917968750    0.5000000000000000 Pd
   0.3635559082031250    0.8635559082031250    0.5000000000000000 Pd
   0.1364440917968750    0.3635559082031250    0.5000000000000000 Pd
   0.8635559082031250    0.6364440917968750    0.5000000000000000 Pd
   0.6570434570312500    0.8429565429687500    0.6320800781250000 La
   0.3429565429687500    0.1570434570312500    0.6320800781250000 La
   0.1570434570312500    0.6570434570312500    0.6320800781250000 La
   0.8429565429687500    0.3429565429687500    0.6320800781250000 La
   0.3429565429687500    0.8429565429687500    0.8679199218750000 La
   0.6570434570312500    0.1570434570312500    0.8679199218750000 La
   0.8429565429687500    0.6570434570312500    0.8679199218750000 La
   0.1570434570312500    0.3429565429687500    0.8679199218750000 La
   0.3429565429687500    0.1570434570312500    0.3679199218750000 La
   0.6570434570312500    0.8429565429687500    0.3679199218750000 La
   0.8429565429687500    0.3429565429687500    0.3679199218750000 La
   0.1570434570312500    0.6570434570312500    0.3679199218750000 La
   0.6570434570312500    0.1570434570312500    0.1320800781250000 La
   0.3429565429687500    0.8429565429687500    0.1320800781250000 La
   0.1570434570312500    0.3429565429687500    0.1320800781250000 La
   0.8429565429687500    0.6570434570312500    0.1320800781250000 La
