La4 Ce2 N4
1.0
   3.6702499311203756    0.0000000000000000   -0.0002399631604641
  -0.0002399788499136    3.6702499232748815   -0.0002399631604641
   0.0000000000000000    0.0000000000000000   13.3773479461669922
Ce N La
2 4 4
direct
   0.0000000000000000    0.0000000000000000    0.0000000000000000 Ce
   0.5000000000000000    0.5000000000000000    0.5000000000000000 Ce
   0.5000000000000000    0.5000000000000000    0.3369903564453125 N
   0.5000000000000000    0.5000000000000000    0.6630096435546875 N
   0.0000000000000000    0.0000000000000000    0.8369903564453125 N
   0.0000000000000000    0.0000000000000000    0.1630096435546875 N
   0.5000000000000000    0.5000000000000000    0.8406219482421875 La
   0.5000000000000000    0.5000000000000000    0.1593780517578125 La
   0.0000000000000000    0.0000000000000000    0.3406219482421875 La
   0.0000000000000000    0.0000000000000000    0.6593780517578125 La
