Cs8 K4 Zr4 F24
1.0
   9.6176490578132263    0.0000000000000000   -0.0006288077126788
  -0.0006288488258515    9.6176490372546244   -0.0006288077126788
   0.0000000000000000    0.0000000000000000    9.6176490783691406
Zr K Cs F
4 4 8 24
direct
   0.0000000000000000    0.0000000000000000    0.0000000000000000 Zr
   0.0000000000000000    0.5000000000000000    0.5000000000000000 Zr
   0.5000000000000000    0.0000000000000000    0.5000000000000000 Zr
   0.5000000000000000    0.5000000000000000    0.0000000000000000 Zr
   0.5000000000000000    0.0000000000000000    0.0000000000000000 K
   0.0000000000000000    0.5000000000000000    0.0000000000000000 K
   0.0000000000000000    0.0000000000000000    0.5000000000000000 K
   0.5000000000000000    0.5000000000000000    0.5000000000000000 K
   0.2500000000000000    0.2500000000000000    0.2500000000000000 Cs
   0.7500000000000000    0.7500000000000000    0.2500000000000000 Cs
   0.7500000000000000    0.2500000000000000    0.7500000000000000 Cs
   0.2500000000000000    0.7500000000000000    0.7500000000000000 Cs
   0.2500000000000000    0.2500000000000000    0.7500000000000000 Cs
   0.7500000000000000    0.7500000000000000    0.7500000000000000 Cs
   0.2500000000000000    0.7500000000000000    0.2500000000000000 Cs
   0.7500000000000000    0.2500000000000000    0.2500000000000000 Cs
   0.7786865234375000    0.0000000000000000    0.0000000000000000 F
   0.2213134765625000    0.0000000000000000    0.0000000000000000 F
   0.0000000000000000    0.7786865234375000    0.0000000000000000 F
   0.0000000000000000    0.2213134765625000    0.0000000000000000 F
   0.0000000000000000    0.0000000000000000    0.7786865234375000 F
   0.0000000000000000    0.0000000000000000    0.2213134765625000 F
   0.7786865234375000    0.5000000000000000    0.5000000000000000 F
   0.2213134765625000    0.5000000000000000    0.5000000000000000 F
   0.0000000000000000    0.2786865234375000    0.5000000000000000 F
   0.0000000000000000    0.7213134765625000    0.5000000000000000 F
   0.0000000000000000    0.5000000000000000    0.2786865234375000 F
   0.0000000000000000    0.5000000000000000    0.7213134765625000 F
   0.2786865234375000    0.0000000000000000    0.5000000000000000 F
   0.7213134765625000    0.0000000000000000    0.5000000000000000 F
   0.5000000000000000    0.7786865234375000    0.5000000000000000 F
   0.5000000000000000    0.2213134765625000    0.5000000000000000 F
   0.5000000000000000    0.0000000000000000    0.2786865234375000 F
   0.5000000000000000    0.0000000000000000    0.7213134765625000 F
   0.2786865234375000    0.5000000000000000    0.0000000000000000 F
   0.7213134765625000    0.5000000000000000    0.0000000000000000 F
   0.5000000000000000    0.2786865234375000    0.0000000000000000 F
   0.5000000000000000    0.7213134765625000    0.0000000000000000 F
   0.5000000000000000    0.5000000000000000    0.7786865234375000 F
   0.5000000000000000    0.5000000000000000    0.2213134765625000 F
