In8 Co4 Cu8 Se16
1.0
   7.8884510825356724    0.0000000000000000   -0.0005157517031418
  -0.0009594739823782   14.6742486326425450   -0.0009594112534393
   0.0000000000000000    0.0000000000000000    7.5347471237182617
Co Se In Cu
4 16 8 8
direct
   0.0000000000000000    0.5000000000000000    0.5043945312500000 Co
   0.5000000000000000    0.5000000000000000    0.5043945312500000 Co
   0.5000000000000000    0.0000000000000000    0.0043945312500000 Co
   0.0000000000000000    0.0000000000000000    0.0043945312500000 Co
   0.2500000000000000    0.9276123046875000    0.8771972656250000 Se
   0.7500000000000000    0.0723876953125000    0.8771972656250000 Se
   0.7500000000000000    0.4276123046875000    0.3771972656250000 Se
   0.2500000000000000    0.5723876953125000    0.3771972656250000 Se
   0.2500000000000000    0.1723632812500000    0.8480224609375000 Se
   0.7500000000000000    0.8276367187500000    0.8480224609375000 Se
   0.7500000000000000    0.6723632812500000    0.3480224609375000 Se
   0.2500000000000000    0.3276367187500000    0.3480224609375000 Se
   0.2500000000000000    0.4748229980468750    0.7150325775146484 Se
   0.7500000000000000    0.5251770019531250    0.7150325775146484 Se
   0.7500000000000000    0.9748229980468750    0.2150325775146484 Se
   0.2500000000000000    0.0251770019531250    0.2150325775146484 Se
   0.2500000000000000    0.6812133789062500    0.0504760742187500 Se
   0.7500000000000000    0.3187866210937500    0.0504760742187500 Se
   0.7500000000000000    0.1812133789062500    0.5504760742187500 Se
   0.2500000000000000    0.8187866210937500    0.5504760742187500 Se
   0.2500000000000000    0.3422851562500000    0.9675903320312500 In
   0.7500000000000000    0.6577148437500000    0.9675903320312500 In
   0.7500000000000000    0.8422851562500000    0.4675903320312500 In
   0.2500000000000000    0.1577148437500000    0.4675903320312500 In
   0.2500000000000000    0.6567535400390625    0.7131347656250000 In
   0.7500000000000000    0.3432464599609375    0.7131347656250000 In
   0.7500000000000000    0.1567535400390625    0.2131347656250000 In
   0.2500000000000000    0.8432464599609375    0.2131347656250000 In
   0.5080871582031250    0.1471099853515625    0.7226715087890625 Cu
   0.4919128417968750    0.8528900146484375    0.7226715087890625 Cu
   0.0080871582031250    0.8528900146484375    0.7226715087890625 Cu
   0.9919128417968750    0.1471099853515625    0.7226715087890625 Cu
   0.0080871582031250    0.6471099853515625    0.2226715087890625 Cu
   0.9919128417968750    0.3528900146484375    0.2226715087890625 Cu
   0.5080871582031250    0.3528900146484375    0.2226715087890625 Cu
   0.4919128417968750    0.6471099853515625    0.2226715087890625 Cu
