Cs4 O4 F4
1.0
   6.8917915154591141    0.0000000000000000   -1.2125746576925780
  -0.0005297296724507    6.8011502867944129   -0.0004446633208062
   0.0000000000000000    0.0000000000000000    6.8011503219604492
O F Cs
4 4 4
direct
   0.4106445312500000    0.0286254882812500    0.4271850585937500 O
   0.5893554687500000    0.5286254882812500    0.0728149414062500 O
   0.5893554687500000    0.9713745117187500    0.5728149414062500 O
   0.4106445312500000    0.4713745117187500    0.9271850585937500 O
   0.0119132995605469    0.7633666992187500    0.5061950683593750 F
   0.9880867004394531    0.2633666992187500    0.9938049316406250 F
   0.9880867004394531    0.2366333007812500    0.4938049316406250 F
   0.0119132995605469    0.7366333007812500    0.0061950683593750 F
   0.2314453125000000    0.5002441406250000    0.2995910644531250 Cs
   0.7685546875000000    0.0002441406250000    0.2004089355468750 Cs
   0.7685546875000000    0.4997558593750000    0.7004089355468750 Cs
   0.2314453125000000    0.9997558593750000    0.7995910644531250 Cs
