Sn1 Pt3
1.0
   4.3383512404224147    0.0000000000000000   -0.0002836440281704
  -0.0002836625735948    4.3383512311487928   -0.0002836440281704
   0.0000000000000000    0.0000000000000000    4.3383512496948242
Sn Pt
1 3
direct
   0.0000000000000000    0.0000000000000000    0.0000000000000000 Sn
   0.5000000000000000    0.5000000000000000    0.0000000000000000 Pt
   0.0000000000000000    0.5000000000000000    0.5000000000000000 Pt
   0.5000000000000000    0.0000000000000000    0.5000000000000000 Pt
