Rb8 Li4 La4 Br24
1.0
  11.2813520190400887    0.0000000000000000   -0.0007375816185821
  -0.0007376298436911   11.2813519949251688   -0.0007375816185821
   0.0000000000000000    0.0000000000000000   11.2813520431518555
La Li Rb Br
4 4 8 24
direct
   0.0000000000000000    0.0000000000000000    0.0000000000000000 La
   0.0000000000000000    0.5000000000000000    0.5000000000000000 La
   0.5000000000000000    0.0000000000000000    0.5000000000000000 La
   0.5000000000000000    0.5000000000000000    0.0000000000000000 La
   0.5000000000000000    0.0000000000000000    0.0000000000000000 Li
   0.0000000000000000    0.5000000000000000    0.0000000000000000 Li
   0.0000000000000000    0.0000000000000000    0.5000000000000000 Li
   0.5000000000000000    0.5000000000000000    0.5000000000000000 Li
   0.2500000000000000    0.2500000000000000    0.2500000000000000 Rb
   0.7500000000000000    0.7500000000000000    0.2500000000000000 Rb
   0.7500000000000000    0.2500000000000000    0.7500000000000000 Rb
   0.2500000000000000    0.7500000000000000    0.7500000000000000 Rb
   0.2500000000000000    0.2500000000000000    0.7500000000000000 Rb
   0.7500000000000000    0.7500000000000000    0.7500000000000000 Rb
   0.2500000000000000    0.7500000000000000    0.2500000000000000 Rb
   0.7500000000000000    0.2500000000000000    0.2500000000000000 Rb
   0.2518844604492188    0.0000000000000000    0.0000000000000000 Br
   0.7481155395507812    0.0000000000000000    0.0000000000000000 Br
   0.0000000000000000    0.2518844604492188    0.0000000000000000 Br
   0.0000000000000000    0.7481155395507812    0.0000000000000000 Br
   0.0000000000000000    0.0000000000000000    0.2518844604492188 Br
   0.0000000000000000    0.0000000000000000    0.7481155395507812 Br
   0.2518844604492188    0.5000000000000000    0.5000000000000000 Br
   0.7481155395507812    0.5000000000000000    0.5000000000000000 Br
   0.0000000000000000    0.7518844604492188    0.5000000000000000 Br
   0.0000000000000000    0.2481155395507812    0.5000000000000000 Br
   0.0000000000000000    0.5000000000000000    0.7518844604492188 Br
   0.0000000000000000    0.5000000000000000    0.2481155395507812 Br
   0.7518844604492188    0.0000000000000000    0.5000000000000000 Br
   0.2481155395507812    0.0000000000000000    0.5000000000000000 Br
   0.5000000000000000    0.2518844604492188    0.5000000000000000 Br
   0.5000000000000000    0.7481155395507812    0.5000000000000000 Br
   0.5000000000000000    0.0000000000000000    0.7518844604492188 Br
   0.5000000000000000    0.0000000000000000    0.2481155395507812 Br
   0.7518844604492188    0.5000000000000000    0.0000000000000000 Br
   0.2481155395507812    0.5000000000000000    0.0000000000000000 Br
   0.5000000000000000    0.7518844604492188    0.0000000000000000 Br
   0.5000000000000000    0.2481155395507812    0.0000000000000000 Br
   0.5000000000000000    0.5000000000000000    0.2518844604492188 Br
   0.5000000000000000    0.5000000000000000    0.7481155395507812 Br
