Rb2 Dy2 F8
1.0
   6.1789014128806885    0.0000000000000000   -2.7786912755036592
  -0.0006544189167025    6.4736504085611619   -0.0004232511814914
   0.0000000000000000    0.0000000000000000    6.8142485618591309
Rb Dy F
2 2 8
direct
   0.0000000000000000    0.1403808593750000    0.2500000000000000 Rb
   0.0000000000000000    0.8596191406250000    0.7500000000000000 Rb
   0.5000000000000000    0.6207275390625000    0.2500000000000000 Dy
   0.5000000000000000    0.3792724609375000    0.7500000000000000 Dy
   0.3663940429687500    0.6333007812500000    0.8726806640625000 F
   0.6336059570312500    0.6333007812500000    0.6273193359375000 F
   0.6336059570312500    0.3666992187500000    0.1273193359375000 F
   0.3663940429687500    0.3666992187500000    0.3726806640625000 F
   0.2425994873046875    0.1882324218750000    0.7147750854492188 F
   0.7574005126953125    0.1882324218750000    0.7852249145507812 F
   0.7574005126953125    0.8117675781250000    0.2852249145507812 F
   0.2425994873046875    0.8117675781250000    0.2147750854492188 F
