Re3 Cl18
1.0
   5.7269515868808130    0.0000000000000000   -0.0003744315587231
  -2.8631508963515468    4.9598731257158182   -0.0003744315587231
   0.0000000000000000    0.0000000000000000   21.2766475677490234
Re Cl
3 18
direct
   0.0000000000000000    0.0000000000000000    0.0000000000000000 Re
   0.6666666865348816    0.3333333432674408    0.3333333432674408 Re
   0.3333333432674408    0.6666666865348816    0.6666666865348816 Re
   0.3071594238281250    0.3137817382812500    0.9302291870117188 Cl
   0.6862182617187500    0.9933776855468750    0.9302291870117188 Cl
   0.0066223144531250    0.6928405761718750    0.9302291870117188 Cl
   0.6928405761718750    0.6862182617187500    0.0697708129882812 Cl
   0.3137817382812500    0.0066223144531250    0.0697708129882812 Cl
   0.9933776855468750    0.3071594238281250    0.0697708129882812 Cl
   0.9738261103630066    0.6471151113510132    0.2635625600814819 Cl
   0.3528849482536316    0.3267110288143158    0.2635625600814819 Cl
   0.6732890009880066    0.0261739194393158    0.2635625600814819 Cl
   0.3595072627067566    0.0195516049861908    0.4031041860580444 Cl
   0.9804484248161316    0.3399556577205658    0.4031041860580444 Cl
   0.6600443720817566    0.6404927968978882    0.4031041860580444 Cl
   0.6404927968978882    0.9804484248161316    0.5968959331512451 Cl
   0.0195516049861908    0.6600443720817566    0.5968959331512451 Cl
   0.3399556577205658    0.3595072627067566    0.5968959331512451 Cl
   0.0261739194393158    0.3528849482536316    0.7364374995231628 Cl
   0.6471151113510132    0.6732890009880066    0.7364374995231628 Cl
   0.3267110288143158    0.9738261103630066    0.7364374995231628 Cl
