Tb1 Er3 Tm1 Ge8
1.0
   4.0763511570590509    0.0000000000000000   -0.0002665143042481
  -0.0002879452378056    4.4038505365938878   -0.0002879264123871
   0.0000000000000000    0.0000000000000000   18.0933494567871094
Ge Er Ge Tb Ge Er Ge Tm
2 1 2 1 1 2 3 1
direct
   0.0000000000000000    0.0000000000000000    0.3973388671875000 Ge
   0.0000000000000000    0.0000000000000000    0.6728515625000000 Ge
   0.0000000000000000    0.0000000000000000    0.0062255859375000 Er
   0.0000000000000000    0.5000000000000000    0.8525085449218750 Ge
   0.0000000000000000    0.5000000000000000    0.2276611328125000 Ge
   0.0000000000000000    0.5000000000000000    0.5388793945312500 Tb
   0.5000000000000000    0.0000000000000000    0.4974021911621094 Ge
   0.5000000000000000    0.0000000000000000    0.1769104003906250 Er
   0.5000000000000000    0.0000000000000000    0.8083496093750000 Er
   0.5000000000000000    0.5000000000000000    0.0757751464843750 Ge
   0.5000000000000000    0.5000000000000000    0.6796875000000000 Ge
   0.5000000000000000    0.5000000000000000    0.9450683593750000 Ge
   0.5000000000000000    0.5000000000000000    0.3513183593750000 Tm
