Ba2 Sn2 F12
1.0
   5.8847689392217264    0.0000000000000000   -1.2456137368219198
  -0.0004693796900798    5.8186511679725585   -0.0003804269340376
   0.0000000000000000    0.0000000000000000    8.2683515548706055
F Sn Ba
12 2 2
direct
   0.6672363281250000    0.9774169921875000    0.4793701171875000 F
   0.3327636718750000    0.4774169921875000    0.5206298828125000 F
   0.5447998046875000    0.3474121093750000    0.0141601562500000 F
   0.4552001953125000    0.8474121093750000    0.9858398437500000 F
   0.1335754394531250    0.4382324218750000    0.8144531250000000 F
   0.8664245605468750    0.9382324218750000    0.1855468750000000 F
   0.0302734375000000    0.5607910156250000    0.1528320312500000 F
   0.9697265625000000    0.0607910156250000    0.8471679687500000 F
   0.3583984375000000    0.0727539062500000    0.6984367370605469 F
   0.6416015625000000    0.5727539062500000    0.3015632629394531 F
   0.2616577148437500    0.1438598632812500    0.1509094238281250 F
   0.7383422851562500    0.6438598632812500    0.8490905761718750 F
   0.7317199707031250    0.6669921875000000    0.0880126953125000 Sn
   0.2682800292968750    0.1669921875000000    0.9119873046875000 Sn
   0.2701416015625000    0.8716430664062500    0.3981323242187500 Ba
   0.7298583984375000    0.3716430664062500    0.6018676757812500 Ba
