Ta6 S8
1.0
  10.4036464468803747    0.0000000000000000   -0.0006801966973901
  -5.2012330116332883    9.0101628481611122   -0.0006801966973901
   0.0000000000000000    0.0000000000000000    3.7619495391845703
S Ta
8 6
direct
   0.3333333432674408    0.6666666865348816    0.2500000000000000 S
   0.6666666269302368    0.3333333134651184    0.7500000000000000 S
   0.9573364257812500    0.3231201171875000    0.2500000000000000 S
   0.6768798828125000    0.6342163085937500    0.2500000000000000 S
   0.3657836914062500    0.0426635742187500    0.2500000000000000 S
   0.0426635742187500    0.6768798828125000    0.7500000000000000 S
   0.3231201171875000    0.3657836914062500    0.7500000000000000 S
   0.6342163085937500    0.9573364257812500    0.7500000000000000 S
   0.4860534667968750    0.3463134765625000    0.2500000000000000 Ta
   0.6536865234375000    0.1397399902343750    0.2500000000000000 Ta
   0.8602600097656250    0.5139465332031250    0.2500000000000000 Ta
   0.5139465332031250    0.6536865234375000    0.7500000000000000 Ta
   0.3463134765625000    0.8602600097656250    0.7500000000000000 Ta
   0.1397399902343750    0.4860534667968750    0.7500000000000000 Ta
