Zr8 Co16
1.0
   6.8797478528800626    0.0000000000000000   -0.0004498020758682
  -0.0004498314851615    6.8797478381739738   -0.0004498020758682
   0.0000000000000000    0.0000000000000000    6.8797478675842285
Zr Co
8 16
direct
   0.8750000000000000    0.8750000000000000    0.8750000000000000 Zr
   0.8750000000000000    0.3750000000000000    0.3750000000000000 Zr
   0.3750000000000000    0.3750000000000000    0.8750000000000000 Zr
   0.3750000000000000    0.8750000000000000    0.3750000000000000 Zr
   0.6250000000000000    0.1250000000000000    0.6250000000000000 Zr
   0.1250000000000000    0.1250000000000000    0.1250000000000000 Zr
   0.1250000000000000    0.6250000000000000    0.6250000000000000 Zr
   0.6250000000000000    0.6250000000000000    0.1250000000000000 Zr
   0.2500000000000000    0.0000000000000000    0.7500000000000000 Co
   0.5000000000000000    0.2500000000000000    0.2500000000000000 Co
   0.0000000000000000    0.5000000000000000    0.0000000000000000 Co
   0.7500000000000000    0.7500000000000000    0.5000000000000000 Co
   0.7500000000000000    0.2500000000000000    0.0000000000000000 Co
   0.2500000000000000    0.5000000000000000    0.2500000000000000 Co
   0.0000000000000000    0.0000000000000000    0.5000000000000000 Co
   0.5000000000000000    0.7500000000000000    0.7500000000000000 Co
   0.0000000000000000    0.7500000000000000    0.2500000000000000 Co
   0.2500000000000000    0.2500000000000000    0.5000000000000000 Co
   0.5000000000000000    0.0000000000000000    0.0000000000000000 Co
   0.7500000000000000    0.5000000000000000    0.7500000000000000 Co
   0.7500000000000000    0.0000000000000000    0.2500000000000000 Co
   0.2500000000000000    0.7500000000000000    0.0000000000000000 Co
   0.0000000000000000    0.2500000000000000    0.7500000000000000 Co
   0.5000000000000000    0.5000000000000000    0.5000000000000000 Co
