Nd1 Cu2 Ni3
1.0
   4.8361520663848268    0.0000000000000000   -0.0003161905472689
  -2.4178016722686628    4.1883889364256861   -0.0003161905472689
   0.0000000000000000    0.0000000000000000    3.6047508716583252
Nd Cu Ni
1 2 3
direct
   0.0000000000000000    0.0000000000000000    0.0000000000000000 Nd
   0.6666666865348816    0.3333333432674408    0.0000000000000000 Cu
   0.3333333134651184    0.6666666269302368    0.0000000000000000 Cu
   0.5000000000000000    0.0000000000000000    0.5000000000000000 Ni
   0.0000000000000000    0.5000000000000000    0.5000000000000000 Ni
   0.5000000000000000    0.5000000000000000    0.5000000000000000 Ni
