Pr1 Zn2 Ni3
1.0
   4.9409541978136637    0.0000000000000000   -0.0003230425740118
  -2.4701967924277732    4.2791536770221290   -0.0003230425740118
   0.0000000000000000    0.0000000000000000    3.8929517269134521
Pr Zn Ni
1 2 3
direct
   0.0000000000000000    0.0000000000000000    0.0000000000000000 Pr
   0.6666666865348816    0.3333333432674408    0.0000000000000000 Zn
   0.3333333134651184    0.6666666269302368    0.0000000000000000 Zn
   0.5000000000000000    0.0000000000000000    0.5000000000000000 Ni
   0.0000000000000000    0.5000000000000000    0.5000000000000000 Ni
   0.5000000000000000    0.5000000000000000    0.5000000000000000 Ni
