La8 Yb4 Th4
1.0
   4.6789493460787277    0.0000000000000000   -0.0003059125383305
  -0.0003059325397312    4.6789493360770464   -0.0003059125383305
   0.0000000000000000    0.0000000000000000   23.9097518920898438
Th La Yb
4 8 4
direct
   0.0000000000000000    0.5000000000000000    0.0000000000000000 Th
   0.5000000000000000    0.0000000000000000    0.0000000000000000 Th
   0.5000000000000000    0.0000000000000000    0.5000000000000000 Th
   0.0000000000000000    0.5000000000000000    0.5000000000000000 Th
   0.0000000000000000    0.0000000000000000    0.6087646484375000 La
   0.0000000000000000    0.0000000000000000    0.3912353515625000 La
   0.5000000000000000    0.5000000000000000    0.1087646484375000 La
   0.5000000000000000    0.5000000000000000    0.8912353515625000 La
   0.0000000000000000    0.0000000000000000    0.7437438964843750 La
   0.0000000000000000    0.0000000000000000    0.2562561035156250 La
   0.5000000000000000    0.5000000000000000    0.2437438964843750 La
   0.5000000000000000    0.5000000000000000    0.7562561035156250 La
   0.0000000000000000    0.0000000000000000    0.1121177673339844 Yb
   0.0000000000000000    0.0000000000000000    0.8878822326660156 Yb
   0.5000000000000000    0.5000000000000000    0.6121177673339844 Yb
   0.5000000000000000    0.5000000000000000    0.3878822326660156 Yb
