Y4 U2 Se2 O8
1.0
   4.1680507570827867    0.0000000000000000   -0.0002725096795626
  -0.0003050761128941    4.6658510962343591   -0.0003050561674852
   0.0000000000000000    0.0000000000000000   12.0280513763427734
Se U Y O
2 2 4 8
direct
   0.0000000000000000    0.0000000000000000    0.0000000000000000 Se
   0.5000000000000000    0.5000000000000000    0.5000000000000000 Se
   0.0000000000000000    0.5000000000000000    0.0000000000000000 U
   0.5000000000000000    0.0000000000000000    0.5000000000000000 U
   0.0000000000000000    0.0000000000000000    0.2739562988281250 Y
   0.0000000000000000    0.0000000000000000    0.7260437011718750 Y
   0.5000000000000000    0.5000000000000000    0.7739562988281250 Y
   0.5000000000000000    0.5000000000000000    0.2260437011718750 Y
   0.0000000000000000    0.5000000000000000    0.8351440429687500 O
   0.0000000000000000    0.5000000000000000    0.1648559570312500 O
   0.5000000000000000    0.0000000000000000    0.3351440429687500 O
   0.5000000000000000    0.0000000000000000    0.6648559570312500 O
   0.0000000000000000    0.5000000000000000    0.6728363037109375 O
   0.0000000000000000    0.5000000000000000    0.3271636962890625 O
   0.5000000000000000    0.0000000000000000    0.1728363037109375 O
   0.5000000000000000    0.0000000000000000    0.8271636962890625 O
