Si4 P4 O12
1.0
   7.8098497223826229    0.0000000000000000   -0.0005106126986726
  -0.0005063634197205    7.7443504002432624   -0.0005063303144559
   0.0000000000000000    0.0000000000000000    4.1287517547607422
P O Si O
4 4 4 8
direct
   0.2357788085937500    0.8508300781250000    0.0000000000000000 P
   0.7642211914062500    0.1491699218750000    0.0000000000000000 P
   0.2642211914062500    0.3508300781250000    0.0000000000000000 P
   0.7357788085937500    0.6491699218750000    0.0000000000000000 P
   0.2300109863281250    0.8504638671875000    0.5000000000000000 O
   0.7699890136718750    0.1495361328125000    0.5000000000000000 O
   0.2699890136718750    0.3504638671875000    0.5000000000000000 O
   0.7300109863281250    0.6495361328125000    0.5000000000000000 O
   0.7445678710937500    0.3978271484375000    0.5000000000000000 Si
   0.2554321289062500    0.6021728515625000    0.5000000000000000 Si
   0.7554321289062500    0.8978271484375000    0.5000000000000000 Si
   0.2445678710937500    0.1021728515625000    0.5000000000000000 Si
   0.2790527343750000    0.6063385009765625    0.1627807617187500 O
   0.7209472656250000    0.3936614990234375    0.1627807617187500 O
   0.2209472656250000    0.1063385009765625    0.8372192382812500 O
   0.7790527343750000    0.8936614990234375    0.8372192382812500 O
   0.7209472656250000    0.3936614990234375    0.8372192382812500 O
   0.2790527343750000    0.6063385009765625    0.8372192382812500 O
   0.7790527343750000    0.8936614990234375    0.1627807617187500 O
   0.2209472656250000    0.1063385009765625    0.1627807617187500 O
