Rb3 Au1
1.0
   5.9234528414962284    0.0000000000000000   -0.0003872789296045
  -0.0003873042509630    5.9234528288343080   -0.0003872789296045
   0.0000000000000000    0.0000000000000000    5.9234528541564941
Au Rb
1 3
direct
   0.0000000000000000    0.0000000000000000    0.0000000000000000 Au
   0.5000000000000000    0.5000000000000000    0.0000000000000000 Rb
   0.0000000000000000    0.5000000000000000    0.5000000000000000 Rb
   0.5000000000000000    0.0000000000000000    0.5000000000000000 Rb
