Y8 Mg4
1.0
   9.3073971691428188    0.0000000000000000   -3.7564181184622081
  -0.0004927005887339    5.0850505481480370   -0.0003324636821145
   0.0000000000000000    0.0000000000000000    7.1024494171142578
Mg Y
4 8
direct
   0.0000000000000000    0.0021362304687500    0.2500000000000000 Mg
   0.0000000000000000    0.9978637695312500    0.7500000000000000 Mg
   0.5000000000000000    0.5021362304687500    0.2500000000000000 Mg
   0.5000000000000000    0.4978637695312500    0.7500000000000000 Mg
   0.8394775390625000    0.4948730468750000    0.9152221679687500 Y
   0.1605224609375000    0.4948730468750000    0.5847778320312500 Y
   0.1605224609375000    0.5051269531250000    0.0847778320312500 Y
   0.8394775390625000    0.5051269531250000    0.4152221679687500 Y
   0.3394775390625000    0.9948730468750000    0.9152221679687500 Y
   0.6605224609375000    0.9948730468750000    0.5847778320312500 Y
   0.6605224609375000    0.0051269531250000    0.0847778320312500 Y
   0.3394775390625000    0.0051269531250000    0.4152221679687500 Y
