K12 Y4 Cl24
1.0
  10.4953498616013690    0.0000000000000000   -0.0006861923221118
  -0.0006862371872477   10.4953498391666020   -0.0006861923221118
   0.0000000000000000    0.0000000000000000   10.4953498840332031
Y K Cl
4 12 24
direct
   0.0000000000000000    0.0000000000000000    0.0000000000000000 Y
   0.0000000000000000    0.5000000000000000    0.5000000000000000 Y
   0.5000000000000000    0.0000000000000000    0.5000000000000000 Y
   0.5000000000000000    0.5000000000000000    0.0000000000000000 Y
   0.5000000000000000    0.0000000000000000    0.0000000000000000 K
   0.0000000000000000    0.5000000000000000    0.0000000000000000 K
   0.0000000000000000    0.0000000000000000    0.5000000000000000 K
   0.5000000000000000    0.5000000000000000    0.5000000000000000 K
   0.2500000000000000    0.2500000000000000    0.2500000000000000 K
   0.7500000000000000    0.7500000000000000    0.2500000000000000 K
   0.7500000000000000    0.2500000000000000    0.7500000000000000 K
   0.2500000000000000    0.7500000000000000    0.7500000000000000 K
   0.2500000000000000    0.2500000000000000    0.7500000000000000 K
   0.7500000000000000    0.7500000000000000    0.7500000000000000 K
   0.2500000000000000    0.7500000000000000    0.2500000000000000 K
   0.7500000000000000    0.2500000000000000    0.2500000000000000 K
   0.2372894287109375    0.0000000000000000    0.0000000000000000 Cl
   0.7627105712890625    0.0000000000000000    0.0000000000000000 Cl
   0.0000000000000000    0.2372894287109375    0.0000000000000000 Cl
   0.0000000000000000    0.7627105712890625    0.0000000000000000 Cl
   0.0000000000000000    0.0000000000000000    0.2372894287109375 Cl
   0.0000000000000000    0.0000000000000000    0.7627105712890625 Cl
   0.2372894287109375    0.5000000000000000    0.5000000000000000 Cl
   0.7627105712890625    0.5000000000000000    0.5000000000000000 Cl
   0.0000000000000000    0.7372894287109375    0.5000000000000000 Cl
   0.0000000000000000    0.2627105712890625    0.5000000000000000 Cl
   0.0000000000000000    0.5000000000000000    0.7372894287109375 Cl
   0.0000000000000000    0.5000000000000000    0.2627105712890625 Cl
   0.7372894287109375    0.0000000000000000    0.5000000000000000 Cl
   0.2627105712890625    0.0000000000000000    0.5000000000000000 Cl
   0.5000000000000000    0.2372894287109375    0.5000000000000000 Cl
   0.5000000000000000    0.7627105712890625    0.5000000000000000 Cl
   0.5000000000000000    0.0000000000000000    0.7372894287109375 Cl
   0.5000000000000000    0.0000000000000000    0.2627105712890625 Cl
   0.7372894287109375    0.5000000000000000    0.0000000000000000 Cl
   0.2627105712890625    0.5000000000000000    0.0000000000000000 Cl
   0.5000000000000000    0.7372894287109375    0.0000000000000000 Cl
   0.5000000000000000    0.2627105712890625    0.0000000000000000 Cl
   0.5000000000000000    0.5000000000000000    0.2372894287109375 Cl
   0.5000000000000000    0.5000000000000000    0.7627105712890625 Cl
