Pr3 In3 Rh3
1.0
   7.3251514278253129    0.0000000000000000   -0.0004789228310025
  -3.6621601489583782    6.3440071314550375   -0.0004789228310025
   0.0000000000000000    0.0000000000000000    4.6396508216857910
Rh In Pr
3 3 3
direct
   0.0000000000000000    0.0000000000000000    0.5000000000000000 Rh
   0.6666666865348816    0.3333333432674408    0.0000000000000000 Rh
   0.3333333432674408    0.6666666865348816    0.0000000000000000 Rh
   0.2452392578125000    0.2452392578125000    0.0000000000000000 In
   0.7547607421875000    0.0000000000000000    0.0000000000000000 In
   0.0000000000000000    0.7547607421875000    0.0000000000000000 In
   0.4124755859375000    0.0000000000000000    0.5000000000000000 Pr
   0.0000000000000000    0.4124755859375000    0.5000000000000000 Pr
   0.5875244140625000    0.5875244140625000    0.5000000000000000 Pr
