Si4 P4 O12
1.0
   7.8098497223826229    0.0000000000000000   -0.0005106126986726
  -0.0005063634197205    7.7443504002432624   -0.0005063303144559
   0.0000000000000000    0.0000000000000000    4.1287517547607422
P O Si O
4 4 4 8
direct
   0.6611022949218750    0.6314086914062500    0.0000000000000000 P
   0.3388977050781250    0.3685913085937500    0.0000000000000000 P
   0.8388977050781250    0.1314086914062500    0.0000000000000000 P
   0.1611022949218750    0.8685913085937500    0.0000000000000000 P
   0.7469482421875000    0.5546569824218750    0.5000000000000000 O
   0.2530517578125000    0.4453430175781250    0.5000000000000000 O
   0.7530517578125000    0.0546569824218750    0.5000000000000000 O
   0.2469482421875000    0.9453430175781250    0.5000000000000000 O
   0.7372245788574219    0.8324432373046875    0.5000000000000000 Si
   0.2627754211425781    0.1675567626953125    0.5000000000000000 Si
   0.7627754211425781    0.3324432373046875    0.5000000000000000 Si
   0.2372245788574219    0.6675567626953125    0.5000000000000000 Si
   0.5968627929687500    0.7846679687500000    0.7836608886718750 O
   0.4031372070312500    0.2153320312500000    0.7836608886718750 O
   0.9031372070312500    0.2846679687500000    0.2163391113281250 O
   0.0968627929687500    0.7153320312500000    0.2163391113281250 O
   0.4031372070312500    0.2153320312500000    0.2163391113281250 O
   0.5968627929687500    0.7846679687500000    0.2163391113281250 O
   0.0968627929687500    0.7153320312500000    0.7836608886718750 O
   0.9031372070312500    0.2846679687500000    0.7836608886718750 O
