Yb2 Al14 Re10
1.0
   4.9278516664085625    0.0000000000000000   -0.0003221859225834
  -0.0005688911527660    8.7006530389774266   -0.0005688539595340
   0.0000000000000000    0.0000000000000000    8.6482524871826172
Al Yb Re Al Re
6 2 2 8 8
direct
   0.5000000000000000    0.5000000000000000    0.7006530761718750 Al
   0.0000000000000000    0.0000000000000000    0.2006530761718750 Al
   0.0000000000000000    0.5000000000000000    0.0665283203125000 Al
   0.5000000000000000    0.0000000000000000    0.5665283203125000 Al
   0.5000000000000000    0.0000000000000000    0.7990112304687500 Al
   0.0000000000000000    0.5000000000000000    0.2990112304687500 Al
   0.5000000000000000    0.0000000000000000    0.0087509155273438 Yb
   0.0000000000000000    0.5000000000000000    0.5087509155273438 Yb
   0.5000000000000000    0.0000000000000000    0.3233337402343750 Re
   0.0000000000000000    0.5000000000000000    0.8233337402343750 Re
   0.5000000000000000    0.6894531250000000    0.4406738281250000 Al
   0.5000000000000000    0.3105468750000000    0.4406738281250000 Al
   0.0000000000000000    0.1894531250000000    0.9406738281250000 Al
   0.0000000000000000    0.8105468750000000    0.9406738281250000 Al
   0.5000000000000000    0.6528625488281250    0.9606933593750000 Al
   0.5000000000000000    0.3471374511718750    0.9606933593750000 Al
   0.0000000000000000    0.1528625488281250    0.4606933593750000 Al
   0.0000000000000000    0.8471374511718750    0.4606933593750000 Al
   0.2553710937500000    0.2465820312500000    0.7009277343750000 Re
   0.7446289062500000    0.7534179687500000    0.7009277343750000 Re
   0.2553710937500000    0.7534179687500000    0.7009277343750000 Re
   0.7446289062500000    0.2465820312500000    0.7009277343750000 Re
   0.7553710937500000    0.7465820312500000    0.2009277343750000 Re
   0.2446289062500000    0.2534179687500000    0.2009277343750000 Re
   0.7553710937500000    0.2534179687500000    0.2009277343750000 Re
   0.2446289062500000    0.7465820312500000    0.2009277343750000 Re
