Mn15 Se12
1.0
   4.3252534773888858    0.0000000000000000   -0.0002827876885010
  -2.1623813616832939    3.7459210469935633   -0.0002827876885010
   0.0000000000000000    0.0000000000000000   29.8702487945556641
Mn Se
15 12
direct
   0.6666666865348816    0.3333333432674408    0.3377227783203125 Mn
   0.3333333730697632    0.6666666865348816    0.6710561513900757 Mn
   0.0000000000000000    0.0000000000000000    0.0043895244598389 Mn
   0.3333333432674408    0.6666666865348816    0.4832763671875000 Mn
   0.0000000000000000    0.0000000000000000    0.8166097402572632 Mn
   0.6666666865348816    0.3333333730697632    0.1499431133270264 Mn
   0.0000000000000000    0.0000000000000000    0.4072875976562500 Mn
   0.6666666865348816    0.3333333432674408    0.7406209707260132 Mn
   0.3333333432674408    0.6666666865348816    0.0739543437957764 Mn
   0.6666666865348816    0.3333333432674408    0.5441284179687500 Mn
   0.3333333730697632    0.6666666865348816    0.8774617910385132 Mn
   0.0000000000000000    0.0000000000000000    0.2107951641082764 Mn
   0.3333333432674408    0.6666666865348816    0.2945556640625000 Mn
   0.0000000000000000    0.0000000000000000    0.6278890371322632 Mn
   0.6666666865348816    0.3333333730697632    0.9612223505973816 Mn
   0.3333333432674408    0.6666666865348816    0.7847290039062500 Se
   0.0000000000000000    0.0000000000000000    0.1180623769760132 Se
   0.6666666865348816    0.3333333730697632    0.4513957500457764 Se
   0.0000000000000000    0.0000000000000000    0.7102661132812500 Se
   0.6666666865348816    0.3333333432674408    0.0435994863510132 Se
   0.3333333432674408    0.6666666865348816    0.3769328594207764 Se
   0.3333333432674408    0.6666666865348816    0.9578857421875000 Se
   0.0000000000000000    0.0000000000000000    0.2912191152572632 Se
   0.6666666865348816    0.3333333730697632    0.6245524883270264 Se
   0.3333333432674408    0.6666666865348816    0.2012939453125000 Se
   0.0000000000000000    0.0000000000000000    0.5346273183822632 Se
   0.6666666865348816    0.3333333730697632    0.8679606318473816 Se
