V4 F12
1.0
   8.7572334646918755    0.0000000000000000   -3.7821101374899353
  -0.0004900966299782    4.9278516420374245   -0.0003221859225834
   0.0000000000000000    0.0000000000000000    7.1024494171142578
V F
4 12
direct
   0.2500000000000000    0.2500000000000000    0.0000000000000000 V
   0.7500000000000000    0.2500000000000000    0.5000000000000000 V
   0.7500000000000000    0.7500000000000000    0.0000000000000000 V
   0.2500000000000000    0.7500000000000000    0.5000000000000000 V
   0.0000000000000000    0.8003540039062500    0.2500000000000000 F
   0.0000000000000000    0.1996459960937500    0.7500000000000000 F
   0.5000000000000000    0.3003540039062500    0.2500000000000000 F
   0.5000000000000000    0.6996459960937500    0.7500000000000000 F
   0.2896728515625000    0.9478302001953125    0.2521972656250000 F
   0.7103271484375000    0.9478302001953125    0.2478027343750000 F
   0.7103271484375000    0.0521697998046875    0.7478027343750000 F
   0.2896728515625000    0.0521697998046875    0.7521972656250000 F
   0.7896728515625000    0.4478302001953125    0.2521972656250000 F
   0.2103271484375000    0.4478302001953125    0.2478027343750000 F
   0.2103271484375000    0.5521697998046875    0.7478027343750000 F
   0.7896728515625000    0.5521697998046875    0.7521972656250000 F
