Cs4 Mo2 W4 I2 O16
1.0
   9.6302550785532279    0.0000000000000000   -0.0977001663678576
  -0.0005781152445499    8.7530536273616644   -0.0005722799417296
   0.0000000000000000    0.0000000000000000    6.8535509109497070
Mo I O Cs W O
2 2 8 4 4 8
direct
   0.0000000000000000    0.0000000000000000    0.0000000000000000 Mo
   0.5000000000000000    0.5000000000000000    0.0000000000000000 Mo
   0.0000000000000000    0.0000000000000000    0.5000000000000000 I
   0.5000000000000000    0.5000000000000000    0.5000000000000000 I
   0.7824401855468750    0.0000000000000000    0.4789314270019531 O
   0.2175598144531250    0.0000000000000000    0.5210685729980469 O
   0.2824401855468750    0.5000000000000000    0.4789314270019531 O
   0.7175598144531250    0.5000000000000000    0.5210685729980469 O
   0.8616943359375000    0.0000000000000000    0.0916442871093750 O
   0.1383056640625000    0.0000000000000000    0.9083557128906250 O
   0.3616943359375000    0.5000000000000000    0.0916442871093750 O
   0.6383056640625000    0.5000000000000000    0.9083557128906250 O
   0.6435546875000000    0.0000000000000000    0.7792053222656250 Cs
   0.3564453125000000    0.0000000000000000    0.2207946777343750 Cs
   0.1435546875000000    0.5000000000000000    0.7792053222656250 Cs
   0.8564453125000000    0.5000000000000000    0.2207946777343750 Cs
   0.6922607421875000    0.0000000000000000    0.2469482421875000 W
   0.3077392578125000    0.0000000000000000    0.7530517578125000 W
   0.1922607421875000    0.5000000000000000    0.2469482421875000 W
   0.8077392578125000    0.5000000000000000    0.7530517578125000 W
   0.3731689453125000    0.8410034179687500    0.8259277343750000 O
   0.6268310546875000    0.8410034179687500    0.1740722656250000 O
   0.6268310546875000    0.1589965820312500    0.1740722656250000 O
   0.3731689453125000    0.1589965820312500    0.8259277343750000 O
   0.8731689453125000    0.3410034179687500    0.8259277343750000 O
   0.1268310546875000    0.3410034179687500    0.1740722656250000 O
   0.1268310546875000    0.6589965820312500    0.1740722656250000 O
   0.8731689453125000    0.6589965820312500    0.8259277343750000 O
