Na5 Gd1 Dy1 Ti2 O10
1.0
   5.0053500541171836    0.0000000000000000    1.6441028405379394
   2.2112351271886195    4.9634888531489594    0.4437528062448356
   0.0000000000000000    0.0000000000000000    7.5347471237182617
O Na Ti Gd Dy
10 5 2 1 1
direct
   0.7971191406250000    0.5644226074218750    0.2081298828125000 O
   0.2966308593750000    0.5698699951171875    0.3891601562500000 O
   0.3281250000000000    0.0942459106445312    0.2124633789062500 O
   0.1750488281250000    0.0348358154296875    0.5469970703125000 O
   0.6176757812500000    0.5540924072265625    0.5408935546875000 O
   0.4301757812500000    0.0376281738281250    0.7958984375000000 O
   0.9387207031250000    0.5231018066406250    0.7606201171875000 O
   0.3657226562500000    0.5276889801025391    0.0290527343750000 O
   0.8432617187500000    0.0890808105468750    0.9964599609375000 O
   0.6826171875000000    0.0625000000000000    0.3734130859375000 O
   0.6275634765625000    0.8208007812500000    0.9731445312500000 Na
   0.6813964843750000    0.2841796875000000    0.7692871093750000 Na
   0.0566406250000000    0.8442382812500000    0.1972656250000000 Na
   0.2163085937500000    0.7827148437500000    0.7880859375000000 Na
   0.8310546875000000    0.8188476562500000    0.5910644531250000 Na
   0.4671630859375000    0.8274803161621094    0.3842163085937500 Ti
   0.5507812500000000    0.3093872070312500    0.2001953125000000 Ti
   0.0246582031250000    0.3503417968750000    0.4565429687500000 Gd
   0.1205902099609375    0.3151855468750000    0.9837036132812500 Dy
