Gd4 Dy8 Os4
1.0
   6.8535508963015319    0.0000000000000000   -0.0004480893030017
  -0.0006254226196559    9.5652484484893723   -0.0006253817304832
   0.0000000000000000    0.0000000000000000    6.3426523208618164
Gd Os Dy
4 4 8
direct
   0.5444488525390625    0.2500000000000000    0.8560905456542969 Gd
   0.9555511474609375    0.7500000000000000    0.3560905456542969 Gd
   0.4555511474609375    0.7500000000000000    0.1439094543457031 Gd
   0.0444488525390625    0.2500000000000000    0.6439094543457031 Gd
   0.8973388671875000    0.2500000000000000    0.0549945831298828 Os
   0.6026611328125000    0.7500000000000000    0.5549945831298828 Os
   0.1026611328125000    0.7500000000000000    0.9450054168701172 Os
   0.3973388671875000    0.2500000000000000    0.4450054168701172 Os
   0.1827239990234375    0.0648803710937500    0.1735839843750000 Dy
   0.3172760009765625    0.9351196289062500    0.6735839843750000 Dy
   0.8172760009765625    0.5648803710937500    0.8264160156250000 Dy
   0.6827239990234375    0.4351196289062500    0.3264160156250000 Dy
   0.8172760009765625    0.9351196289062500    0.8264160156250000 Dy
   0.6827239990234375    0.0648803710937500    0.3264160156250000 Dy
   0.1827239990234375    0.4351196289062500    0.1735839843750000 Dy
   0.3172760009765625    0.5648803710937500    0.6735839843750000 Dy
