Rb8 Li4 In4 F24
1.0
   9.0019483373884484    0.0000000000000000   -0.0005885528271680
  -0.0005885913083659    9.0019483181459634   -0.0005885528271680
   0.0000000000000000    0.0000000000000000    9.0019483566284180
In Li Rb F
4 4 8 24
direct
   0.0000000000000000    0.0000000000000000    0.0000000000000000 In
   0.0000000000000000    0.5000000000000000    0.5000000000000000 In
   0.5000000000000000    0.0000000000000000    0.5000000000000000 In
   0.5000000000000000    0.5000000000000000    0.0000000000000000 In
   0.5000000000000000    0.0000000000000000    0.0000000000000000 Li
   0.0000000000000000    0.5000000000000000    0.0000000000000000 Li
   0.0000000000000000    0.0000000000000000    0.5000000000000000 Li
   0.5000000000000000    0.5000000000000000    0.5000000000000000 Li
   0.2500000000000000    0.2500000000000000    0.2500000000000000 Rb
   0.7500000000000000    0.7500000000000000    0.2500000000000000 Rb
   0.7500000000000000    0.2500000000000000    0.7500000000000000 Rb
   0.2500000000000000    0.7500000000000000    0.7500000000000000 Rb
   0.2500000000000000    0.2500000000000000    0.7500000000000000 Rb
   0.7500000000000000    0.7500000000000000    0.7500000000000000 Rb
   0.2500000000000000    0.7500000000000000    0.2500000000000000 Rb
   0.7500000000000000    0.2500000000000000    0.2500000000000000 Rb
   0.7506713867187500    0.0000000000000000    0.0000000000000000 F
   0.2493286132812500    0.0000000000000000    0.0000000000000000 F
   0.0000000000000000    0.7506713867187500    0.0000000000000000 F
   0.0000000000000000    0.2493286132812500    0.0000000000000000 F
   0.0000000000000000    0.0000000000000000    0.7506713867187500 F
   0.0000000000000000    0.0000000000000000    0.2493286132812500 F
   0.7506713867187500    0.5000000000000000    0.5000000000000000 F
   0.2493286132812500    0.5000000000000000    0.5000000000000000 F
   0.0000000000000000    0.2506713867187500    0.5000000000000000 F
   0.0000000000000000    0.7493286132812500    0.5000000000000000 F
   0.0000000000000000    0.5000000000000000    0.2506713867187500 F
   0.0000000000000000    0.5000000000000000    0.7493286132812500 F
   0.2506713867187500    0.0000000000000000    0.5000000000000000 F
   0.7493286132812500    0.0000000000000000    0.5000000000000000 F
   0.5000000000000000    0.7506713867187500    0.5000000000000000 F
   0.5000000000000000    0.2493286132812500    0.5000000000000000 F
   0.5000000000000000    0.0000000000000000    0.2506713867187500 F
   0.5000000000000000    0.0000000000000000    0.7493286132812500 F
   0.2506713867187500    0.5000000000000000    0.0000000000000000 F
   0.7493286132812500    0.5000000000000000    0.0000000000000000 F
   0.5000000000000000    0.2506713867187500    0.0000000000000000 F
   0.5000000000000000    0.7493286132812500    0.0000000000000000 F
   0.5000000000000000    0.5000000000000000    0.7506713867187500 F
   0.5000000000000000    0.5000000000000000    0.2493286132812500 F
