K4 Rb8 Sc4 F24
1.0
   9.7486476689834358    0.0000000000000000   -0.0006373724811122
  -0.0006374141542730    9.7486476481448125   -0.0006373724811122
   0.0000000000000000    0.0000000000000000    9.7486476898193359
Sc K Rb F
4 4 8 24
direct
   0.0000000000000000    0.0000000000000000    0.0000000000000000 Sc
   0.0000000000000000    0.5000000000000000    0.5000000000000000 Sc
   0.5000000000000000    0.0000000000000000    0.5000000000000000 Sc
   0.5000000000000000    0.5000000000000000    0.0000000000000000 Sc
   0.5000000000000000    0.0000000000000000    0.0000000000000000 K
   0.0000000000000000    0.5000000000000000    0.0000000000000000 K
   0.0000000000000000    0.0000000000000000    0.5000000000000000 K
   0.5000000000000000    0.5000000000000000    0.5000000000000000 K
   0.2500000000000000    0.2500000000000000    0.2500000000000000 Rb
   0.7500000000000000    0.7500000000000000    0.2500000000000000 Rb
   0.7500000000000000    0.2500000000000000    0.7500000000000000 Rb
   0.2500000000000000    0.7500000000000000    0.7500000000000000 Rb
   0.2500000000000000    0.2500000000000000    0.7500000000000000 Rb
   0.7500000000000000    0.7500000000000000    0.7500000000000000 Rb
   0.2500000000000000    0.7500000000000000    0.2500000000000000 Rb
   0.7500000000000000    0.2500000000000000    0.2500000000000000 Rb
   0.2133789062500000    0.0000000000000000    0.0000000000000000 F
   0.7866210937500000    0.0000000000000000    0.0000000000000000 F
   0.0000000000000000    0.2133789062500000    0.0000000000000000 F
   0.0000000000000000    0.7866210937500000    0.0000000000000000 F
   0.0000000000000000    0.0000000000000000    0.2133789062500000 F
   0.0000000000000000    0.0000000000000000    0.7866210937500000 F
   0.2133789062500000    0.5000000000000000    0.5000000000000000 F
   0.7866210937500000    0.5000000000000000    0.5000000000000000 F
   0.0000000000000000    0.7133789062500000    0.5000000000000000 F
   0.0000000000000000    0.2866210937500000    0.5000000000000000 F
   0.0000000000000000    0.5000000000000000    0.7133789062500000 F
   0.0000000000000000    0.5000000000000000    0.2866210937500000 F
   0.7133789062500000    0.0000000000000000    0.5000000000000000 F
   0.2866210937500000    0.0000000000000000    0.5000000000000000 F
   0.5000000000000000    0.2133789062500000    0.5000000000000000 F
   0.5000000000000000    0.7866210937500000    0.5000000000000000 F
   0.5000000000000000    0.0000000000000000    0.7133789062500000 F
   0.5000000000000000    0.0000000000000000    0.2866210937500000 F
   0.7133789062500000    0.5000000000000000    0.0000000000000000 F
   0.2866210937500000    0.5000000000000000    0.0000000000000000 F
   0.5000000000000000    0.7133789062500000    0.0000000000000000 F
   0.5000000000000000    0.2866210937500000    0.0000000000000000 F
   0.5000000000000000    0.5000000000000000    0.2133789062500000 F
   0.5000000000000000    0.5000000000000000    0.7866210937500000 F
