Gd4 Bi4 Pd4
1.0
   6.6832504129619039    0.0000000000000000   -0.0004369549543940
  -0.0004369835237072    6.6832503986758462   -0.0004369549543940
   0.0000000000000000    0.0000000000000000    6.6832504272460938
Bi Gd Pd
4 4 4
direct
   0.0000000000000000    0.0000000000000000    0.0000000000000000 Bi
   0.0000000000000000    0.5000000000000000    0.5000000000000000 Bi
   0.5000000000000000    0.0000000000000000    0.5000000000000000 Bi
   0.5000000000000000    0.5000000000000000    0.0000000000000000 Bi
   0.5000000000000000    0.0000000000000000    0.0000000000000000 Gd
   0.0000000000000000    0.5000000000000000    0.0000000000000000 Gd
   0.0000000000000000    0.0000000000000000    0.5000000000000000 Gd
   0.5000000000000000    0.5000000000000000    0.5000000000000000 Gd
   0.2500000000000000    0.2500000000000000    0.7500000000000000 Pd
   0.7500000000000000    0.7500000000000000    0.7500000000000000 Pd
   0.7500000000000000    0.2500000000000000    0.2500000000000000 Pd
   0.2500000000000000    0.7500000000000000    0.2500000000000000 Pd
