Li4 Se4 O12
1.0
   5.7007474777449243    0.0000000000000000   -0.0003727183182181
  -0.0005192116617762    7.9408521312757951   -0.0005191777165133
   0.0000000000000000    0.0000000000000000    5.5959529876708984
Li O Se O
4 4 4 8
direct
   0.5000000000000000    0.0000000000000000    0.0000000000000000 Li
   0.0000000000000000    0.0000000000000000    0.5000000000000000 Li
   0.5000000000000000    0.5000000000000000    0.0000000000000000 Li
   0.0000000000000000    0.5000000000000000    0.5000000000000000 Li
   0.0194396972656250    0.2500000000000000    0.8182678222656250 O
   0.4805603027343750    0.7500000000000000    0.3182678222656250 O
   0.9805603027343750    0.7500000000000000    0.1817321777343750 O
   0.5194396972656250    0.2500000000000000    0.6817321777343750 O
   0.9979858398437500    0.2500000000000000    0.1193237304687500 Se
   0.5020141601562500    0.7500000000000000    0.6193237304687500 Se
   0.0020141601562500    0.7500000000000000    0.8806762695312500 Se
   0.4979858398437500    0.2500000000000000    0.3806762695312500 Se
   0.2413482666015625    0.0972290039062500    0.2578125000000000 O
   0.2586517333984375    0.9027709960937500    0.7578125000000000 O
   0.7586517333984375    0.5972290039062500    0.7421875000000000 O
   0.7413482666015625    0.4027709960937500    0.2421875000000000 O
   0.7586517333984375    0.9027709960937500    0.7421875000000000 O
   0.7413482666015625    0.0972290039062500    0.2421875000000000 O
   0.2413482666015625    0.4027709960937500    0.2578125000000000 O
   0.2586517333984375    0.5972290039062500    0.7578125000000000 O
