Pd1 Pt10
1.0
   5.4911517979560793    0.0000000000000000   -0.0003590148258986
  -2.7452643791045821    4.7556567955452609   -0.0003590148258986
   0.0000000000000000    0.0000000000000000    7.3644499778747559
Pd Pt
1 10
direct
   0.0000000000000000    0.0000000000000000    0.0000000000000000 Pd
   0.6666666865348816    0.3333333432674408    0.0000000000000000 Pt
   0.3333333134651184    0.6666666269302368    0.0000000000000000 Pt
   0.6666666865348816    0.3333333432674408    0.5000000000000000 Pt
   0.3333333134651184    0.6666666269302368    0.5000000000000000 Pt
   0.3140869140625000    0.3140869140625000    0.7431030273437500 Pt
   0.6859130859375000    0.0000000000000000    0.7431030273437500 Pt
   0.0000000000000000    0.6859130859375000    0.7431030273437500 Pt
   0.6859130859375000    0.6859130859375000    0.2568969726562500 Pt
   0.0000000000000000    0.3140869140625000    0.2568969726562500 Pt
   0.3140869140625000    0.0000000000000000    0.2568969726562500 Pt
