Na4 Pr4 Te4
1.0
   5.2991841262306902    0.0000000000000000   -2.1017063401528633
  -0.0009346762949304    9.7093486128483733   -0.0006348030879932
   0.0000000000000000    0.0000000000000000    5.6614484786987305
Na Te Pr
4 4 4
direct
   0.0000000000000000    0.0000000000000000    0.0000000000000000 Na
   0.5000000000000000    0.5000000000000000    0.0000000000000000 Na
   0.5000000000000000    0.0000000000000000    0.5000000000000000 Na
   0.0000000000000000    0.5000000000000000    0.5000000000000000 Na
   0.5000000000000000    0.3917541503906250    0.5000000000000000 Te
   0.5000000000000000    0.6082458496093750    0.5000000000000000 Te
   0.0000000000000000    0.8917541503906250    0.5000000000000000 Te
   0.0000000000000000    0.1082458496093750    0.5000000000000000 Te
   0.0000000000000000    0.2995605468750000    0.5000000000000000 Pr
   0.0000000000000000    0.7004394531250000    0.5000000000000000 Pr
   0.5000000000000000    0.7995605468750000    0.5000000000000000 Pr
   0.5000000000000000    0.2004394531250000    0.5000000000000000 Pr
