Ho1 Ga3
1.0
   4.2073492913921040    0.0000000000000000   -0.0002750790415056
  -0.0002750970269278    4.2073492823985115   -0.0002750790415056
   0.0000000000000000    0.0000000000000000    4.2073493003845215
Ho Ga
1 3
direct
   0.0000000000000000    0.0000000000000000    0.0000000000000000 Ho
   0.5000000000000000    0.5000000000000000    0.0000000000000000 Ga
   0.0000000000000000    0.5000000000000000    0.5000000000000000 Ga
   0.5000000000000000    0.0000000000000000    0.5000000000000000 Ga
