Al4 Ge4 O20
1.0
   4.9409541978136637    0.0000000000000000   -0.0003230425740118
  -0.0004909456789077    7.5085506118225727   -0.0004909135816314
   0.0000000000000000    0.0000000000000000    8.2814540863037109
Al O Ge O
4 4 4 16
direct
   0.0000000000000000    0.0000000000000000    0.0000000000000000 Al
   0.0000000000000000    0.5000000000000000    0.0000000000000000 Al
   0.5000000000000000    0.5000000000000000    0.5000000000000000 Al
   0.5000000000000000    0.0000000000000000    0.5000000000000000 Al
   0.0000000000000000    0.2500000000000000    0.0905914306640625 O
   0.0000000000000000    0.7500000000000000    0.9094085693359375 O
   0.5000000000000000    0.7500000000000000    0.5905914306640625 O
   0.5000000000000000    0.2500000000000000    0.4094085693359375 O
   0.0000000000000000    0.2500000000000000    0.7012939453125000 Ge
   0.0000000000000000    0.7500000000000000    0.2987060546875000 Ge
   0.5000000000000000    0.7500000000000000    0.2012939453125000 Ge
   0.5000000000000000    0.2500000000000000    0.7987060546875000 Ge
   0.2505760192871094    0.0945434570312500    0.6284408569335938 O
   0.7494239807128906    0.4054565429687500    0.6284408569335938 O
   0.7494239807128906    0.5945434570312500    0.3715591430664062 O
   0.2505760192871094    0.9054565429687500    0.3715591430664062 O
   0.7494239807128906    0.9054565429687500    0.3715591430664062 O
   0.2505760192871094    0.5945434570312500    0.3715591430664062 O
   0.2505760192871094    0.4054565429687500    0.6284408569335938 O
   0.7494239807128906    0.0945434570312500    0.6284408569335938 O
   0.7505760192871094    0.5945434570312500    0.1284408569335938 O
   0.2494239807128906    0.9054565429687500    0.1284408569335938 O
   0.2494239807128906    0.0945434570312500    0.8715591430664062 O
   0.7505760192871094    0.4054565429687500    0.8715591430664062 O
   0.2494239807128906    0.4054565429687500    0.8715591430664062 O
   0.7505760192871094    0.0945434570312500    0.8715591430664062 O
   0.7505760192871094    0.9054565429687500    0.1284408569335938 O
   0.2494239807128906    0.5945434570312500    0.1284408569335938 O
