La1 Nd1 Co3
1.0
   5.0850505720174040    0.0000000000000000   -0.0003324636821145
  -2.5422368047630535    4.4039495170224958   -0.0003324636821145
   0.0000000000000000    0.0000000000000000    5.0981488227844238
La Co Nd
1 3 1
direct
   0.0000000000000000    0.0000000000000000    0.0000000000000000 La
   0.3333333432674408    0.6666666865348816    0.0000000000000000 Co
   0.3333333432674408    0.6666666865348816    0.5000000000000000 Co
   0.6666666865348816    0.3333333432674408    0.0000000000000000 Co
   0.6666666865348816    0.3333333432674408    0.5000000000000000 Nd
