Pr4 Rh4
1.0
   4.7444524663610910    0.0000000000000000   -0.0003101951719544
  -0.0008138619650280   12.4472503130001506   -0.0008138087559797
   0.0000000000000000    0.0000000000000000    4.7444524765014648
Rh Pr
4 4
direct
   0.0000000000000000    0.5836181640625000    0.2500000000000000 Rh
   0.0000000000000000    0.4163818359375000    0.7500000000000000 Rh
   0.5000000000000000    0.0836181640625000    0.2500000000000000 Rh
   0.5000000000000000    0.9163818359375000    0.7500000000000000 Rh
   0.0000000000000000    0.8711853027343750    0.2500000000000000 Pr
   0.0000000000000000    0.1288146972656250    0.7500000000000000 Pr
   0.5000000000000000    0.3711853027343750    0.2500000000000000 Pr
   0.5000000000000000    0.6288146972656250    0.7500000000000000 Pr
