U4 Ga2 C4
1.0
   3.7226469437189578    0.0000000000000000   -0.0002433889088403
  -0.0002434048222747    3.7226469357614604   -0.0002433889088403
   0.0000000000000000    0.0000000000000000   12.1852455139160156
Ga C U
2 4 4
direct
   0.0000000000000000    0.0000000000000000    0.0000000000000000 Ga
   0.5000000000000000    0.5000000000000000    0.5000000000000000 Ga
   0.5000000000000000    0.5000000000000000    0.3346176147460938 C
   0.5000000000000000    0.5000000000000000    0.6653823852539062 C
   0.0000000000000000    0.0000000000000000    0.8346176147460938 C
   0.0000000000000000    0.0000000000000000    0.1653823852539062 C
   0.0000000000000000    0.0000000000000000    0.6513671875000000 U
   0.0000000000000000    0.0000000000000000    0.3486328125000000 U
   0.5000000000000000    0.5000000000000000    0.1513671875000000 U
   0.5000000000000000    0.5000000000000000    0.8486328125000000 U
