In2 Au12
1.0
   9.8010482578606979    0.0000000000000000   -0.0006407984633077
  -4.8999681032684510    8.4882777723084679   -0.0006407984633077
   0.0000000000000000    0.0000000000000000    3.5785465240478516
In Au
2 12
direct
   0.6666666865348816    0.3333333432674408    0.2145843505859375 In
   0.3333333134651184    0.6666666269302368    0.7145843505859375 In
   0.1251220703125000    0.5625610351562500    0.2240600585937500 Au
   0.4374389648437500    0.5625610351562500    0.2240600585937500 Au
   0.4374389648437500    0.8748779296875000    0.2240600585937500 Au
   0.8748779296875000    0.4374389648437500    0.7240600585937500 Au
   0.5625610351562500    0.4374389648437500    0.7240600585937500 Au
   0.5625610351562500    0.1251220703125000    0.7240600585937500 Au
   0.8632202148437500    0.7264251708984375    0.5143432617187500 Au
   0.2735748291015625    0.1367950439453125    0.5143432617187500 Au
   0.8632049560546875    0.1367797851562500    0.5143432617187500 Au
   0.1367797851562500    0.2735748291015625    0.0143432617187500 Au
   0.7264251708984375    0.8632049560546875    0.0143432617187500 Au
   0.1367950439453125    0.8632202148437500    0.0143432617187500 Au
