Mg2 Ag6
1.0
   3.9191484367529523    0.0000000000000000   -0.0002562362953097
  -0.0002562530487414    3.9191484283754150   -0.0002562362953097
   0.0000000000000000    0.0000000000000000    8.6351499557495117
Mg Ag
2 6
direct
   0.0000000000000000    0.0000000000000000    0.0000000000000000 Mg
   0.5000000000000000    0.5000000000000000    0.5000000000000000 Mg
   0.5000000000000000    0.5000000000000000    0.0000000000000000 Ag
   0.0000000000000000    0.0000000000000000    0.5000000000000000 Ag
   0.0000000000000000    0.5000000000000000    0.2500000000000000 Ag
   0.5000000000000000    0.0000000000000000    0.2500000000000000 Ag
   0.0000000000000000    0.5000000000000000    0.7500000000000000 Ag
   0.5000000000000000    0.0000000000000000    0.7500000000000000 Ag
