La8 In4 Ag4
1.0
   7.5609512167500466    0.0000000000000000   -0.0004943395638270
  -0.0004943718851034    7.5609512005878239   -0.0004943395638270
   0.0000000000000000    0.0000000000000000    7.5609512329101562
In Ag La
4 4 8
direct
   0.0000000000000000    0.0000000000000000    0.0000000000000000 In
   0.0000000000000000    0.5000000000000000    0.5000000000000000 In
   0.5000000000000000    0.0000000000000000    0.5000000000000000 In
   0.5000000000000000    0.5000000000000000    0.0000000000000000 In
   0.5000000000000000    0.0000000000000000    0.0000000000000000 Ag
   0.0000000000000000    0.5000000000000000    0.0000000000000000 Ag
   0.0000000000000000    0.0000000000000000    0.5000000000000000 Ag
   0.5000000000000000    0.5000000000000000    0.5000000000000000 Ag
   0.2500000000000000    0.2500000000000000    0.2500000000000000 La
   0.7500000000000000    0.7500000000000000    0.2500000000000000 La
   0.7500000000000000    0.2500000000000000    0.7500000000000000 La
   0.2500000000000000    0.7500000000000000    0.7500000000000000 La
   0.2500000000000000    0.2500000000000000    0.7500000000000000 La
   0.7500000000000000    0.7500000000000000    0.7500000000000000 La
   0.2500000000000000    0.7500000000000000    0.2500000000000000 La
   0.7500000000000000    0.2500000000000000    0.2500000000000000 La
