Li18 W3 Se18
1.0
   6.4081473213562816    0.0000000000000000   -0.0004189685478674
  -3.2037101185077370    5.5498282467817717   -0.0004189685478674
   0.0000000000000000    0.0000000000000000   16.3510494232177734
W Li Se
3 18 18
direct
   0.0000000000000000    0.0000000000000000    0.0000000000000000 W
   0.6666666865348816    0.3333333432674408    0.3333333432674408 W
   0.3333333432674408    0.6666666865348816    0.6666666865348816 W
   0.6596069335937500    0.9702148437500000    0.4354553222656250 Li
   0.0297851562500000    0.6893920898437500    0.4354553222656250 Li
   0.3106079101562500    0.3403930664062500    0.4354553222656250 Li
   0.3403930664062500    0.0297851562500000    0.5645446777343750 Li
   0.9702148437500000    0.3106079101562500    0.5645446777343750 Li
   0.6893920898437500    0.6596069335937500    0.5645446777343750 Li
   0.3262736797332764    0.3035482168197632    0.7687886953353882 Li
   0.6964518427848816    0.0227254331111908    0.7687886953353882 Li
   0.9772745966911316    0.6737264394760132    0.7687886953353882 Li
   0.0070597529411316    0.3631185293197632    0.8978780508041382 Li
   0.6368815898895264    0.6439412832260132    0.8978780508041382 Li
   0.3560587763786316    0.9929403066635132    0.8978780508041382 Li
   0.9929403066635132    0.6368815898895264    0.1021220684051514 Li
   0.3631185293197632    0.3560587763786316    0.1021220684051514 Li
   0.6439412832260132    0.0070597529411316    0.1021220684051514 Li
   0.6737264394760132    0.6964518427848816    0.2312113642692566 Li
   0.3035482168197632    0.9772745966911316    0.2312113642692566 Li
   0.0227254331111908    0.3262736797332764    0.2312113642692566 Li
   0.0169639587402344    0.3566265106201172    0.7391357421875000 Se
   0.6433734893798828    0.6603374481201172    0.7391357421875000 Se
   0.3396625518798828    0.9830360412597656    0.7391357421875000 Se
   0.9830360412597656    0.6433734893798828    0.2608642578125000 Se
   0.3566265106201172    0.3396625518798828    0.2608642578125000 Se
   0.6603374481201172    0.0169639587402344    0.2608642578125000 Se
   0.6836306452751160    0.6899598836898804    0.0724691152572632 Se
   0.3100401759147644    0.9936708211898804    0.0724691152572632 Se
   0.0063292980194092    0.3163693845272064    0.0724691152572632 Se
   0.6497027277946472    0.9767068624496460    0.5941976308822632 Se
   0.0232932567596436    0.6729959249496460    0.5941976308822632 Se
   0.3270041346549988    0.3502973020076752    0.5941976308822632 Se
   0.3502973020076752    0.0232932567596436    0.4058024883270264 Se
   0.9767068624496460    0.3270041346549988    0.4058024883270264 Se
   0.6729959249496460    0.6497027277946472    0.4058024883270264 Se
   0.3163693845272064    0.3100401759147644    0.9275309443473816 Se
   0.6899598836898804    0.0063292980194092    0.9275309443473816 Se
   0.9936708211898804    0.6836306452751160    0.9275309443473816 Se
