Mn1 Ni1 H3
1.0
   3.3165497708961182    0.0000000000000000   -0.0002168380300515
  -0.0002168522075165    3.3165497638066905   -0.0002168380300515
   0.0000000000000000    0.0000000000000000    3.3165497779846191
Mn Ni H
1 1 3
direct
   0.0000000000000000    0.0000000000000000    0.0000000000000000 Mn
   0.5000000000000000    0.5000000000000000    0.5000000000000000 Ni
   0.5000000000000000    0.5000000000000000    0.0000000000000000 H
   0.0000000000000000    0.5000000000000000    0.5000000000000000 H
   0.5000000000000000    0.0000000000000000    0.5000000000000000 H
