Li4 Ce4 In4 Ni16
1.0
   7.3775482020053165    0.0000000000000000   -0.0004823485637908
  -0.0004823801010627    7.3775481862351340   -0.0004823485637908
   0.0000000000000000    0.0000000000000000    7.3775482177734375
Ce Li In Ni
4 4 4 16
direct
   0.0000000000000000    0.0000000000000000    0.0000000000000000 Ce
   0.0000000000000000    0.5000000000000000    0.5000000000000000 Ce
   0.5000000000000000    0.0000000000000000    0.5000000000000000 Ce
   0.5000000000000000    0.5000000000000000    0.0000000000000000 Ce
   0.5000000000000000    0.0000000000000000    0.0000000000000000 Li
   0.0000000000000000    0.5000000000000000    0.0000000000000000 Li
   0.0000000000000000    0.0000000000000000    0.5000000000000000 Li
   0.5000000000000000    0.5000000000000000    0.5000000000000000 Li
   0.2500000000000000    0.2500000000000000    0.7500000000000000 In
   0.7500000000000000    0.7500000000000000    0.7500000000000000 In
   0.7500000000000000    0.2500000000000000    0.2500000000000000 In
   0.2500000000000000    0.7500000000000000    0.2500000000000000 In
   0.1267089843750000    0.1267089843750000    0.8732910156250000 Ni
   0.8732910156250000    0.8732910156250000    0.8732910156250000 Ni
   0.8732910156250000    0.1267089843750000    0.1267089843750000 Ni
   0.1267089843750000    0.8732910156250000    0.1267089843750000 Ni
   0.1267089843750000    0.6267089843750000    0.3732910156250000 Ni
   0.8732910156250000    0.3732910156250000    0.3732910156250000 Ni
   0.8732910156250000    0.6267089843750000    0.6267089843750000 Ni
   0.1267089843750000    0.3732910156250000    0.6267089843750000 Ni
   0.6267089843750000    0.1267089843750000    0.3732910156250000 Ni
   0.3732910156250000    0.8732910156250000    0.3732910156250000 Ni
   0.3732910156250000    0.1267089843750000    0.6267089843750000 Ni
   0.6267089843750000    0.8732910156250000    0.6267089843750000 Ni
   0.6267089843750000    0.6267089843750000    0.8732910156250000 Ni
   0.3732910156250000    0.3732910156250000    0.8732910156250000 Ni
   0.3732910156250000    0.6267089843750000    0.1267089843750000 Ni
   0.6267089843750000    0.3732910156250000    0.1267089843750000 Ni
