Hf2 Zr2 C4
1.0
   3.6440496366817445    0.0000000000000000   -0.0002382501693663
  -1.8218180868711440    3.1559589054595625   -0.0002382501693663
   0.0000000000000000    0.0000000000000000   11.2813520431518555
Zr Hf C
2 2 4
direct
   0.0000000000000000    0.0000000000000000    0.0000000000000000 Zr
   0.0000000000000000    0.0000000000000000    0.5000000000000000 Zr
   0.0000000000000000    0.0000000000000000    0.2500000000000000 Hf
   0.0000000000000000    0.0000000000000000    0.7500000000000000 Hf
   0.3333333432674408    0.6666666865348816    0.8757934570312500 C
   0.6666666269302368    0.3333333134651184    0.3757934570312500 C
   0.6666666865348816    0.3333333432674408    0.1242065429687500 C
   0.3333333134651184    0.6666666269302368    0.6242065429687500 C
