K6 Er6 Cl18
1.0
   6.7880482528563268    0.0000000000000000   -0.0004438067005537
  -3.3936390320052521    5.8788445466397814   -0.0004438067005537
   0.0000000000000000    0.0000000000000000   18.7352466583251953
K Er Cl
6 6 18
direct
   0.6666666865348816    0.3333333432674408    0.4799957275390625 K
   0.3333333134651184    0.6666666269302368    0.5200042724609375 K
   0.3333333730697632    0.6666666865348816    0.8133291006088257 K
   0.0000000000000000    0.0000000000000000    0.8533376455307007 K
   0.0000000000000000    0.0000000000000000    0.1466624736785889 K
   0.6666666269302368    0.3333333432674408    0.1866709589958191 K
   0.6666666865348816    0.3333333432674408    0.9968566894531250 Er
   0.3333333134651184    0.6666666269302368    0.0031433105468750 Er
   0.3333333730697632    0.6666666865348816    0.3301900625228882 Er
   0.0000000000000000    0.0000000000000000    0.3364766836166382 Er
   0.0000000000000000    0.0000000000000000    0.6635234355926514 Er
   0.6666666269302368    0.3333333432674408    0.6698099970817566 Er
   0.2962036132812500    0.3268127441406250    0.2585039138793945 Cl
   0.6731872558593750    0.9693908691406250    0.2585039138793945 Cl
   0.0306091308593750    0.7037963867187500    0.2585039138793945 Cl
   0.7037963867187500    0.6731872558593750    0.7414960861206055 Cl
   0.3268127441406250    0.0306091308593750    0.7414960861206055 Cl
   0.9693908691406250    0.2962036132812500    0.7414960861206055 Cl
   0.9628702998161316    0.6601461172103882    0.5918372869491577 Cl
   0.3398539423942566    0.3027242124080658    0.5918372869491577 Cl
   0.6972758173942566    0.0371297299861908    0.5918372869491577 Cl
   0.3704630732536316    0.0065205991268158    0.0748294293880463 Cl
   0.9934794306755066    0.3639424741268158    0.0748294293880463 Cl
   0.6360575556755066    0.6295369863510132    0.0748294293880463 Cl
   0.6295369863510132    0.9934794306755066    0.9251706004142761 Cl
   0.0065205991268158    0.6360575556755066    0.9251706004142761 Cl
   0.3639424741268158    0.3704630732536316    0.9251706004142761 Cl
   0.0371297299861908    0.3398539423942566    0.4081627726554871 Cl
   0.6601461172103882    0.6972758173942566    0.4081627726554871 Cl
   0.3027242124080658    0.9628702998161316    0.4081627726554871 Cl
