Y4 C4 O12
1.0
   6.2902512415911724    0.0000000000000000   -0.0004112604308624
  -0.0004301312983836    6.5784520821682833   -0.0004301031770583
   0.0000000000000000    0.0000000000000000    5.7793521881103516
C O Y O
4 4 4 8
direct
   0.5000000000000000    0.7291488647460938    0.6504058837890625 C
   0.5000000000000000    0.2708511352539062    0.1504058837890625 C
   0.0000000000000000    0.2291488647460938    0.6504058837890625 C
   0.0000000000000000    0.7708511352539062    0.1504058837890625 C
   0.5000000000000000    0.5712280273437500    0.5034179687500000 O
   0.5000000000000000    0.4287719726562500    0.0034179687500000 O
   0.0000000000000000    0.0712280273437500    0.5034179687500000 O
   0.0000000000000000    0.9287719726562500    0.0034179687500000 O
   0.0000000000000000    0.7263488769531250    0.6169128417968750 Y
   0.0000000000000000    0.2736511230468750    0.1169128417968750 Y
   0.5000000000000000    0.2263488769531250    0.6169128417968750 Y
   0.5000000000000000    0.7736511230468750    0.1169128417968750 Y
   0.6732177734375000    0.7975463867187500    0.7485961914062500 O
   0.3267822265625000    0.2024536132812500    0.2485961914062500 O
   0.6732177734375000    0.2024536132812500    0.2485961914062500 O
   0.3267822265625000    0.7975463867187500    0.7485961914062500 O
   0.1732177734375000    0.2975463867187500    0.7485961914062500 O
   0.8267822265625000    0.7024536132812500    0.2485961914062500 O
   0.1732177734375000    0.7024536132812500    0.2485961914062500 O
   0.8267822265625000    0.2975463867187500    0.7485961914062500 O
