Cs8 Nd4 Ag4 Br24
1.0
  11.5957498302577715    0.0000000000000000   -0.0007581371376445
  -0.0007581867067297   11.5957498054707990   -0.0007581371376445
   0.0000000000000000    0.0000000000000000   11.5957498550415039
Ag Nd Cs Br
4 4 8 24
direct
   0.0000000000000000    0.0000000000000000    0.0000000000000000 Ag
   0.0000000000000000    0.5000000000000000    0.5000000000000000 Ag
   0.5000000000000000    0.0000000000000000    0.5000000000000000 Ag
   0.5000000000000000    0.5000000000000000    0.0000000000000000 Ag
   0.5000000000000000    0.0000000000000000    0.0000000000000000 Nd
   0.0000000000000000    0.5000000000000000    0.0000000000000000 Nd
   0.0000000000000000    0.0000000000000000    0.5000000000000000 Nd
   0.5000000000000000    0.5000000000000000    0.5000000000000000 Nd
   0.2500000000000000    0.2500000000000000    0.2500000000000000 Cs
   0.7500000000000000    0.7500000000000000    0.2500000000000000 Cs
   0.7500000000000000    0.2500000000000000    0.7500000000000000 Cs
   0.2500000000000000    0.7500000000000000    0.7500000000000000 Cs
   0.2500000000000000    0.2500000000000000    0.7500000000000000 Cs
   0.7500000000000000    0.7500000000000000    0.7500000000000000 Cs
   0.2500000000000000    0.7500000000000000    0.2500000000000000 Cs
   0.7500000000000000    0.2500000000000000    0.2500000000000000 Cs
   0.7508544921875000    0.0000000000000000    0.0000000000000000 Br
   0.2491455078125000    0.0000000000000000    0.0000000000000000 Br
   0.0000000000000000    0.7508544921875000    0.0000000000000000 Br
   0.0000000000000000    0.2491455078125000    0.0000000000000000 Br
   0.0000000000000000    0.0000000000000000    0.7508544921875000 Br
   0.0000000000000000    0.0000000000000000    0.2491455078125000 Br
   0.7508544921875000    0.5000000000000000    0.5000000000000000 Br
   0.2491455078125000    0.5000000000000000    0.5000000000000000 Br
   0.0000000000000000    0.2508544921875000    0.5000000000000000 Br
   0.0000000000000000    0.7491455078125000    0.5000000000000000 Br
   0.0000000000000000    0.5000000000000000    0.2508544921875000 Br
   0.0000000000000000    0.5000000000000000    0.7491455078125000 Br
   0.2508544921875000    0.0000000000000000    0.5000000000000000 Br
   0.7491455078125000    0.0000000000000000    0.5000000000000000 Br
   0.5000000000000000    0.7508544921875000    0.5000000000000000 Br
   0.5000000000000000    0.2491455078125000    0.5000000000000000 Br
   0.5000000000000000    0.0000000000000000    0.2508544921875000 Br
   0.5000000000000000    0.0000000000000000    0.7491455078125000 Br
   0.2508544921875000    0.5000000000000000    0.0000000000000000 Br
   0.7491455078125000    0.5000000000000000    0.0000000000000000 Br
   0.5000000000000000    0.2508544921875000    0.0000000000000000 Br
   0.5000000000000000    0.7491455078125000    0.0000000000000000 Br
   0.5000000000000000    0.5000000000000000    0.7508544921875000 Br
   0.5000000000000000    0.5000000000000000    0.2491455078125000 Br
