Pr1 Ni5
1.0
   5.3732514266565552    0.0000000000000000   -0.0003513064283105
  -2.6863208820895728    4.6535482174912737   -0.0003513064283105
   0.0000000000000000    0.0000000000000000    3.7488512992858887
Pr Ni
1 5
direct
   0.0000000000000000    0.0000000000000000    0.0000000000000000 Pr
   0.6666666865348816    0.3333333432674408    0.0000000000000000 Ni
   0.3333333134651184    0.6666666269302368    0.0000000000000000 Ni
   0.5000000000000000    0.0000000000000000    0.5000000000000000 Ni
   0.0000000000000000    0.5000000000000000    0.5000000000000000 Ni
   0.5000000000000000    0.5000000000000000    0.5000000000000000 Ni
