Gd1 Pb1 S2
1.0
   4.0239500913446324    0.0000000000000000   -0.0002630882908767
  -0.0002631054923107    4.0239500827430721   -0.0002630882908767
   0.0000000000000000    0.0000000000000000    6.6570496559143066
S Pb Gd S
1 1 1 1
direct
   0.0000000000000000    0.0000000000000000    0.0000000000000000 S
   0.0000000000000000    0.0000000000000000    0.5000000000000000 Pb
   0.5000000000000000    0.5000000000000000    0.0000000000000000 Gd
   0.5000000000000000    0.5000000000000000    0.5000000000000000 S
