Na1 Cu2 Br4
1.0
   4.3776502515688893    0.0000000000000000   -0.0002862134212893
  -0.0002862321347077    4.3776502422112626   -0.0002862134212893
   0.0000000000000000    0.0000000000000000    9.5521497726440430
Cu Na Cu Br
1 1 1 4
direct
   0.0000000000000000    0.0000000000000000    0.0000000000000000 Cu
   0.5000000000000000    0.5000000000000000    0.5000000000000000 Na
   0.0000000000000000    0.0000000000000000    0.5000000000000000 Cu
   0.5000000000000000    0.0000000000000000    0.1091308593750000 Br
   0.0000000000000000    0.5000000000000000    0.8908691406250000 Br
   0.5000000000000000    0.0000000000000000    0.6507568359375000 Br
   0.0000000000000000    0.5000000000000000    0.3492431640625000 Br
