Li4 Co8 O16
1.0
   5.3208503609421367    0.0000000000000000   -0.0003478804149390
  -0.0003616078292075    5.5304503204435544   -0.0003615841878416
   0.0000000000000000    0.0000000000000000    7.6002502441406250
Co Li O
8 4 16
direct
   0.0000000000000000    0.0000000000000000    0.5000000000000000 Co
   0.0000000000000000    0.5000000000000000    0.5000000000000000 Co
   0.5000000000000000    0.5000000000000000    0.0000000000000000 Co
   0.5000000000000000    0.0000000000000000    0.0000000000000000 Co
   0.2500000000000000    0.2500000000000000    0.7500000000000000 Co
   0.7500000000000000    0.2500000000000000    0.7500000000000000 Co
   0.7500000000000000    0.7500000000000000    0.2500000000000000 Co
   0.2500000000000000    0.7500000000000000    0.2500000000000000 Co
   0.0000000000000000    0.2500000000000000    0.1287231445312500 Li
   0.0000000000000000    0.7500000000000000    0.8712768554687500 Li
   0.5000000000000000    0.7500000000000000    0.6287231445312500 Li
   0.5000000000000000    0.2500000000000000    0.3712768554687500 Li
   0.0000000000000000    0.0319824218750000    0.7522277832031250 O
   0.0000000000000000    0.4680175781250000    0.7522277832031250 O
   0.0000000000000000    0.5319824218750000    0.2477722167968750 O
   0.0000000000000000    0.9680175781250000    0.2477722167968750 O
   0.5000000000000000    0.5319824218750000    0.2522277832031250 O
   0.5000000000000000    0.9680175781250000    0.2522277832031250 O
   0.5000000000000000    0.0319824218750000    0.7477722167968750 O
   0.5000000000000000    0.4680175781250000    0.7477722167968750 O
   0.7854003906250000    0.2500000000000000    0.5071258544921875 O
   0.2145996093750000    0.2500000000000000    0.5071258544921875 O
   0.2145996093750000    0.7500000000000000    0.4928741455078125 O
   0.7854003906250000    0.7500000000000000    0.4928741455078125 O
   0.2854003906250000    0.7500000000000000    0.0071258544921875 O
   0.7145996093750000    0.7500000000000000    0.0071258544921875 O
   0.7145996093750000    0.2500000000000000    0.9928741455078125 O
   0.2854003906250000    0.2500000000000000    0.9928741455078125 O
