Y4 Ho4 Mg8
1.0
   7.4299492677197359    0.0000000000000000   -0.0004857745771622
  -0.0004858063384363    7.4299492518375416   -0.0004857745771622
   0.0000000000000000    0.0000000000000000    7.4299492835998535
Y Ho Mg
4 4 8
direct
   0.0000000000000000    0.0000000000000000    0.0000000000000000 Y
   0.0000000000000000    0.5000000000000000    0.5000000000000000 Y
   0.5000000000000000    0.0000000000000000    0.5000000000000000 Y
   0.5000000000000000    0.5000000000000000    0.0000000000000000 Y
   0.5000000000000000    0.0000000000000000    0.0000000000000000 Ho
   0.0000000000000000    0.5000000000000000    0.0000000000000000 Ho
   0.0000000000000000    0.0000000000000000    0.5000000000000000 Ho
   0.5000000000000000    0.5000000000000000    0.5000000000000000 Ho
   0.2500000000000000    0.2500000000000000    0.2500000000000000 Mg
   0.7500000000000000    0.7500000000000000    0.2500000000000000 Mg
   0.7500000000000000    0.2500000000000000    0.7500000000000000 Mg
   0.2500000000000000    0.7500000000000000    0.7500000000000000 Mg
   0.2500000000000000    0.2500000000000000    0.7500000000000000 Mg
   0.7500000000000000    0.7500000000000000    0.7500000000000000 Mg
   0.2500000000000000    0.7500000000000000    0.2500000000000000 Mg
   0.7500000000000000    0.2500000000000000    0.2500000000000000 Mg
