Ga3 Te6 As3
1.0
   4.1942510515214178    0.0000000000000000   -0.0002742226706604
  -2.0968875806801694    3.6324653277323633   -0.0002742226706604
   0.0000000000000000    0.0000000000000000   23.8573532104492188
Ga As Te
3 3 6
direct
   0.3333333432674408    0.6666666865348816    0.6718444824218750 Ga
   0.0000000000000000    0.0000000000000000    0.0051778554916382 Ga
   0.6666666865348816    0.3333333730697632    0.3385112285614014 Ga
   0.6666666865348816    0.3333333432674408    0.1367950439453125 As
   0.3333333730697632    0.6666666865348816    0.4701283872127533 As
   0.0000000000000000    0.0000000000000000    0.8034617304801941 As
   0.3333333432674408    0.6666666865348816    0.0780029296875000 Te
   0.0000000000000000    0.0000000000000000    0.4113362729549408 Te
   0.6666666865348816    0.3333333730697632    0.7446696162223816 Te
   0.0000000000000000    0.0000000000000000    0.6132965087890625 Te
   0.6666666865348816    0.3333333432674408    0.9466298818588257 Te
   0.3333333432674408    0.6666666865348816    0.2799632549285889 Te
