Zr4 N8
1.0
   5.1771440214758817    0.0000000000000000   -2.0540891777658197
  -0.0005387737230716    5.5959529497742588   -0.0003658667902897
   0.0000000000000000    0.0000000000000000    5.7007474899291992
N Zr
8 4
direct
   0.9743041992187500    0.3324584960937500    0.1592102050781250 N
   0.0256958007812500    0.8324584960937500    0.3407897949218750 N
   0.0256958007812500    0.6675415039062500    0.8407897949218750 N
   0.9743041992187500    0.1675415039062500    0.6592102050781250 N
   0.5585021972656250    0.3709716796875000    0.3412780761718750 N
   0.4414978027343750    0.8709716796875000    0.1587219238281250 N
   0.4414978027343750    0.6290283203125000    0.6587219238281250 N
   0.5585021972656250    0.1290283203125000    0.8412780761718750 N
   0.7558593750000000    0.0997352600097656    0.2467956542968750 Zr
   0.2441406250000000    0.5997352600097656    0.2532043457031250 Zr
   0.2441406250000000    0.9002647399902344    0.7532043457031250 Zr
   0.7558593750000000    0.4002647399902344    0.7467956542968750 Zr
