Te3 Mo3 Se1 S3
1.0
   3.1069462232941798    0.0000000000000000   -0.0002031340233296
  -1.5532968507222544    2.6907961141599515   -0.0002031340233296
   0.0000000000000000    0.0000000000000000   36.7346458435058594
S Se Mo S Mo Te
2 1 2 1 1 3
direct
   0.3333333432674408    0.6666666865348816    0.3483276367187500 S
   0.3333333432674408    0.6666666865348816    0.6739501953125000 S
   0.3333333432674408    0.6666666865348816    0.2523193359375000 Se
   0.3333333432674408    0.6666666865348816    0.0959777832031250 Mo
   0.3333333432674408    0.6666666865348816    0.5108032226562500 Mo
   0.6666666865348816    0.3333333432674408    0.5573730468750000 S
   0.6666666865348816    0.3333333432674408    0.3019409179687500 Mo
   0.6666666865348816    0.3333333432674408    0.0362548828125000 Te
   0.6666666865348816    0.3333333432674408    0.4586200714111328 Te
   0.6666666865348816    0.3333333432674408    0.1524047851562500 Te
