Mn2 B8
1.0
   3.8013527277004635    0.0000000000000000   -1.7094925058286050
  -0.0002955402818132    2.9235470083086792   -0.0001911432727006
   0.0000000000000000    0.0000000000000000    5.2029504776000977
B Mn
8 2
direct
   0.4883518218994141    0.2500000000000000    0.4114990234375000 B
   0.5116481781005859    0.7500000000000000    0.5885009765625000 B
   0.7315139770507812    0.2500000000000000    0.8955383300781250 B
   0.2684860229492188    0.7500000000000000    0.1044616699218750 B
   0.0655517578125000    0.2500000000000000    0.2059326171875000 B
   0.9344482421875000    0.7500000000000000    0.7940673828125000 B
   0.4958877563476562    0.2500000000000000    0.1025390625000000 B
   0.5041122436523438    0.7500000000000000    0.8974609375000000 B
   0.1980285644531250    0.2500000000000000    0.6657769680023193 Mn
   0.8019714355468750    0.7500000000000000    0.3342230319976807 Mn
