Ti10 Ga16
1.0
   9.9451484467616957    0.0000000000000000   -0.0006502198208177
  -0.0006502623339728    9.9451484255030334   -0.0006502198208177
   0.0000000000000000    0.0000000000000000    3.3296480178833008
Ti Ga
10 16
direct
   0.0000000000000000    0.0000000000000000    0.0000000000000000 Ti
   0.5000000000000000    0.5000000000000000    0.5000000000000000 Ti
   0.8649597167968750    0.2337570190429688    0.0000000000000000 Ti
   0.1350402832031250    0.7662429809570312    0.0000000000000000 Ti
   0.7662429809570312    0.8649597167968750    0.0000000000000000 Ti
   0.2337570190429688    0.1350402832031250    0.0000000000000000 Ti
   0.3649597167968750    0.7337570190429688    0.5000000000000000 Ti
   0.6350402832031250    0.2662429809570312    0.5000000000000000 Ti
   0.2662429809570312    0.3649597167968750    0.5000000000000000 Ti
   0.7337570190429688    0.6350402832031250    0.5000000000000000 Ti
   0.9235839843750000    0.6165161132812500    0.0000000000000000 Ga
   0.0764160156250000    0.3834838867187500    0.0000000000000000 Ga
   0.3834838867187500    0.9235839843750000    0.0000000000000000 Ga
   0.6165161132812500    0.0764160156250000    0.0000000000000000 Ga
   0.4235839843750000    0.1165161132812500    0.5000000000000000 Ga
   0.5764160156250000    0.8834838867187500    0.5000000000000000 Ga
   0.8834838867187500    0.4235839843750000    0.5000000000000000 Ga
   0.1165161132812500    0.5764160156250000    0.5000000000000000 Ga
   0.3055114746093750    0.5496520996093750    0.0000000000000000 Ga
   0.6944885253906250    0.4503479003906250    0.0000000000000000 Ga
   0.4503479003906250    0.3055114746093750    0.0000000000000000 Ga
   0.5496520996093750    0.6944885253906250    0.0000000000000000 Ga
   0.8055114746093750    0.0496520996093750    0.5000000000000000 Ga
   0.1944885253906250    0.9503479003906250    0.5000000000000000 Ga
   0.9503479003906250    0.8055114746093750    0.5000000000000000 Ga
   0.0496520996093750    0.1944885253906250    0.5000000000000000 Ga
