Hf2 Fe8 Ge4
1.0
   6.3819508416149082    0.0000000000000000   -0.0004172558061769
  -0.0004172830875058    6.3819508279729060   -0.0004172558061769
   0.0000000000000000    0.0000000000000000    4.9409542083740234
Hf Ge Fe
2 4 8
direct
   0.5000000000000000    0.5000000000000000    0.0000000000000000 Hf
   0.0000000000000000    0.0000000000000000    0.5000000000000000 Hf
   0.1966171264648438    0.1966171264648438    0.0000000000000000 Ge
   0.8033828735351562    0.8033828735351562    0.0000000000000000 Ge
   0.3033828735351562    0.6966171264648438    0.5000000000000000 Ge
   0.6966171264648438    0.3033828735351562    0.5000000000000000 Ge
   0.3697052001953125    0.8836364746093750    0.0000000000000000 Fe
   0.6302947998046875    0.1163635253906250    0.0000000000000000 Fe
   0.6163635253906250    0.8697052001953125    0.5000000000000000 Fe
   0.3836364746093750    0.1302947998046875    0.5000000000000000 Fe
   0.1302947998046875    0.3836364746093750    0.5000000000000000 Fe
   0.8697052001953125    0.6163635253906250    0.5000000000000000 Fe
   0.8836364746093750    0.3697052001953125    0.0000000000000000 Fe
   0.1163635253906250    0.6302947998046875    0.0000000000000000 Fe
