Sn20 Pd8
1.0
  16.0628490104684900    0.0000000000000000   -0.0010501987839920
  -0.0004052915528887    6.1985516283174675   -0.0004052650555479
   0.0000000000000000    0.0000000000000000    5.7662506103515625
Sn Pd Sn
12 8 8
direct
   0.4869308471679688    0.0000000000000000    0.0000000000000000 Sn
   0.5130691528320312    0.0000000000000000    0.5000000000000000 Sn
   0.9869308471679688    0.5000000000000000    0.0000000000000000 Sn
   0.0130691528320312    0.5000000000000000    0.5000000000000000 Sn
   0.0672302246093750    0.0000000000000000    0.0000000000000000 Sn
   0.9327697753906250    0.0000000000000000    0.5000000000000000 Sn
   0.5672302246093750    0.5000000000000000    0.0000000000000000 Sn
   0.4327697753906250    0.5000000000000000    0.5000000000000000 Sn
   0.8795776367187500    0.0000000000000000    0.0000000000000000 Sn
   0.1204223632812500    0.0000000000000000    0.5000000000000000 Sn
   0.3795776367187500    0.5000000000000000    0.0000000000000000 Sn
   0.6204223632812500    0.5000000000000000    0.5000000000000000 Sn
   0.8679199218750000    0.6724166870117188    0.2998352050781250 Pd
   0.1320800781250000    0.3275833129882812    0.7998352050781250 Pd
   0.1320800781250000    0.6724166870117188    0.2001647949218750 Pd
   0.8679199218750000    0.3275833129882812    0.7001647949218750 Pd
   0.3679199218750000    0.1724166870117188    0.2998352050781250 Pd
   0.6320800781250000    0.8275833129882812    0.7998352050781250 Pd
   0.6320800781250000    0.1724166870117188    0.2001647949218750 Pd
   0.3679199218750000    0.8275833129882812    0.7001647949218750 Pd
   0.7940979003906250    0.3016510009765625    0.2848052978515625 Sn
   0.2059020996093750    0.6983489990234375    0.7848052978515625 Sn
   0.2059020996093750    0.3016510009765625    0.2151947021484375 Sn
   0.7940979003906250    0.6983489990234375    0.7151947021484375 Sn
   0.2940979003906250    0.8016510009765625    0.2848052978515625 Sn
   0.7059020996093750    0.1983489990234375    0.7848052978515625 Sn
   0.7059020996093750    0.8016510009765625    0.2151947021484375 Sn
   0.2940979003906250    0.1983489990234375    0.7151947021484375 Sn
