Ag2 H6 O6
1.0
   5.0850505720174040    0.0000000000000000   -0.0003324636821145
  -2.5422368047630535    4.4039495170224958   -0.0003324636821145
   0.0000000000000000    0.0000000000000000    5.6614484786987305
Ag H O
2 6 6
direct
   0.6666666865348816    0.3333333432674408    0.1054687500000000 Ag
   0.3333333134651184    0.6666666269302368    0.6054687500000000 Ag
   0.7969970703125000    0.8984985351562500    0.8742370605468750 H
   0.1015014648437500    0.8984985351562500    0.8742370605468750 H
   0.1015014648437500    0.2030029296875000    0.8742370605468750 H
   0.2030029296875000    0.1015014648437500    0.3742370605468750 H
   0.8984985351562500    0.1015014648437500    0.3742370605468750 H
   0.8984985351562500    0.7969970703125000    0.3742370605468750 H
   0.6835937500000000    0.8417968750000000    0.3348236083984375 O
   0.1582031250000000    0.8417968750000000    0.3348236083984375 O
   0.1582031250000000    0.3164062500000000    0.3348236083984375 O
   0.3164062500000000    0.1582031250000000    0.8348236083984375 O
   0.8417968750000000    0.1582031250000000    0.8348236083984375 O
   0.8417968750000000    0.6835937500000000    0.8348236083984375 O
