Na3 Mn9 Ni18
1.0
   3.6964504639775848    0.0000000000000000   -0.0002416761671498
  -1.8480155277549359    3.2013410692734303   -0.0002416761671498
   0.0000000000000000    0.0000000000000000   33.6430511474609375
Na Mn Ni
3 9 18
direct
   0.0000000000000000    0.0000000000000000    0.0000000000000000 Na
   0.6666666865348816    0.3333333432674408    0.3333333432674408 Na
   0.3333333432674408    0.6666666865348816    0.6666666865348816 Na
   0.3333333432674408    0.6666666865348816    0.1666666716337204 Mn
   0.6666666865348816    0.3333333432674408    0.8333333134651184 Mn
   0.0000000000000000    0.0000000000000000    0.5000000000000000 Mn
   0.0000000000000000    0.0000000000000000    0.4115600585937500 Mn
   0.0000000000000000    0.0000000000000000    0.5884399414062500 Mn
   0.6666666865348816    0.3333333432674408    0.7448934316635132 Mn
   0.6666666865348816    0.3333333432674408    0.9217733144760132 Mn
   0.3333333432674408    0.6666666865348816    0.0782268047332764 Mn
   0.3333333432674408    0.6666666865348816    0.2551066279411316 Mn
   0.3333333432674408    0.6666666865348816    0.7729492187500000 Ni
   0.6666666865348816    0.3333333432674408    0.2270507812500000 Ni
   0.0000000000000000    0.0000000000000000    0.1062825918197632 Ni
   0.3333333730697632    0.6666666865348816    0.5603841543197632 Ni
   0.6666666865348816    0.3333333730697632    0.4396159648895264 Ni
   0.0000000000000000    0.0000000000000000    0.8937174677848816 Ni
   0.3333333432674408    0.6666666865348816    0.8598785400390625 Ni
   0.6666666865348816    0.3333333432674408    0.1401214599609375 Ni
   0.0000000000000000    0.0000000000000000    0.1932119131088257 Ni
   0.3333333730697632    0.6666666865348816    0.4734548330307007 Ni
   0.6666666865348816    0.3333333730697632    0.5265452861785889 Ni
   0.0000000000000000    0.0000000000000000    0.8067881464958191 Ni
   0.0000000000000000    0.0000000000000000    0.2799682617187500 Ni
   0.0000000000000000    0.0000000000000000    0.7200317382812500 Ni
   0.6666666865348816    0.3333333432674408    0.6133016347885132 Ni
   0.6666666865348816    0.3333333432674408    0.0533650815486908 Ni
   0.3333333432674408    0.6666666865348816    0.9466349482536316 Ni
   0.3333333432674408    0.6666666865348816    0.3866984248161316 Ni
