Sm4 Si4 Cu8
1.0
   8.2028484169161970    0.0000000000000000   -0.0005363071910283
  -0.0003222069879826    4.9278516558748304   -0.0003221859225834
   0.0000000000000000    0.0000000000000000    6.0937500000000000
Si Sm Cu
4 4 8
direct
   0.7536773681640625    0.2500000000000000    0.1822814941406250 Si
   0.7463226318359375    0.7500000000000000    0.6822814941406250 Si
   0.2463226318359375    0.7500000000000000    0.8177185058593750 Si
   0.2536773681640625    0.2500000000000000    0.3177185058593750 Si
   0.9994201660156250    0.2500000000000000    0.7370300292968750 Sm
   0.5005798339843750    0.7500000000000000    0.2370300292968750 Sm
   0.0005798339843750    0.7500000000000000    0.2629699707031250 Sm
   0.4994201660156250    0.2500000000000000    0.7629699707031250 Sm
   0.7418212890625000    0.4856872558593750    0.4580993652343750 Cu
   0.7581787109375000    0.5143127441406250    0.9580993652343750 Cu
   0.2581787109375000    0.9856872558593750    0.5419006347656250 Cu
   0.2418212890625000    0.0143127441406250    0.0419006347656250 Cu
   0.2581787109375000    0.5143127441406250    0.5419006347656250 Cu
   0.2418212890625000    0.4856872558593750    0.0419006347656250 Cu
   0.7418212890625000    0.0143127441406250    0.4580993652343750 Cu
   0.7581787109375000    0.9856872558593750    0.9580993652343750 Cu
