Cr4 I32
1.0
  10.9669465784278923    0.0000000000000000   -0.0007170256007053
  -0.0007170724818055   10.9669465549850429   -0.0007170256007053
   0.0000000000000000    0.0000000000000000   10.9669466018676758
Cr I
4 32
direct
   0.0000000000000000    0.0000000000000000    0.0000000000000000 Cr
   0.0000000000000000    0.5000000000000000    0.5000000000000000 Cr
   0.5000000000000000    0.0000000000000000    0.5000000000000000 Cr
   0.5000000000000000    0.5000000000000000    0.0000000000000000 Cr
   0.6372070312500000    0.8627929687500000    0.8627929687500000 I
   0.3627929687500000    0.1372070312500000    0.8627929687500000 I
   0.3627929687500000    0.8627929687500000    0.1372070312500000 I
   0.6372070312500000    0.1372070312500000    0.1372070312500000 I
   0.8627929687500000    0.6372070312500000    0.8627929687500000 I
   0.8627929687500000    0.3627929687500000    0.1372070312500000 I
   0.1372070312500000    0.3627929687500000    0.8627929687500000 I
   0.1372070312500000    0.6372070312500000    0.1372070312500000 I
   0.8627929687500000    0.8627929687500000    0.6372070312500000 I
   0.1372070312500000    0.8627929687500000    0.3627929687500000 I
   0.8627929687500000    0.1372070312500000    0.3627929687500000 I
   0.1372070312500000    0.1372070312500000    0.6372070312500000 I
   0.8627929687500000    0.6372070312500000    0.1372070312500000 I
   0.1372070312500000    0.3627929687500000    0.1372070312500000 I
   0.8627929687500000    0.3627929687500000    0.8627929687500000 I
   0.1372070312500000    0.6372070312500000    0.8627929687500000 I
   0.6372070312500000    0.8627929687500000    0.1372070312500000 I
   0.3627929687500000    0.8627929687500000    0.8627929687500000 I
   0.3627929687500000    0.1372070312500000    0.1372070312500000 I
   0.6372070312500000    0.1372070312500000    0.8627929687500000 I
   0.8627929687500000    0.8627929687500000    0.3627929687500000 I
   0.8627929687500000    0.1372070312500000    0.6372070312500000 I
   0.1372070312500000    0.8627929687500000    0.6372070312500000 I
   0.1372070312500000    0.1372070312500000    0.3627929687500000 I
   0.6372070312500000    0.3627929687500000    0.3627929687500000 I
   0.3627929687500000    0.6372070312500000    0.3627929687500000 I
   0.3627929687500000    0.3627929687500000    0.6372070312500000 I
   0.6372070312500000    0.6372070312500000    0.6372070312500000 I
   0.6372070312500000    0.3627929687500000    0.6372070312500000 I
   0.3627929687500000    0.3627929687500000    0.3627929687500000 I
   0.3627929687500000    0.6372070312500000    0.6372070312500000 I
   0.6372070312500000    0.6372070312500000    0.3627929687500000 I
