Zr8 Al4 Os4
1.0
   6.3819508416149082    0.0000000000000000   -0.0004172558061769
  -0.0004172830875058    6.3819508279729060   -0.0004172558061769
   0.0000000000000000    0.0000000000000000    6.3819508552551270
Os Al Zr
4 4 8
direct
   0.0000000000000000    0.0000000000000000    0.0000000000000000 Os
   0.0000000000000000    0.5000000000000000    0.5000000000000000 Os
   0.5000000000000000    0.0000000000000000    0.5000000000000000 Os
   0.5000000000000000    0.5000000000000000    0.0000000000000000 Os
   0.5000000000000000    0.0000000000000000    0.0000000000000000 Al
   0.0000000000000000    0.5000000000000000    0.0000000000000000 Al
   0.0000000000000000    0.0000000000000000    0.5000000000000000 Al
   0.5000000000000000    0.5000000000000000    0.5000000000000000 Al
   0.2500000000000000    0.2500000000000000    0.2500000000000000 Zr
   0.7500000000000000    0.7500000000000000    0.2500000000000000 Zr
   0.7500000000000000    0.2500000000000000    0.7500000000000000 Zr
   0.2500000000000000    0.7500000000000000    0.7500000000000000 Zr
   0.2500000000000000    0.2500000000000000    0.7500000000000000 Zr
   0.7500000000000000    0.7500000000000000    0.7500000000000000 Zr
   0.2500000000000000    0.7500000000000000    0.2500000000000000 Zr
   0.7500000000000000    0.2500000000000000    0.2500000000000000 Zr
