Nb4 Co8 Ge4
1.0
   5.6745509980035509    0.0000000000000000   -0.0003710055765275
  -0.0003710298338896    5.6745509858736805   -0.0003710055765275
   0.0000000000000000    0.0000000000000000    5.6745510101318359
Ge Nb Co
4 4 8
direct
   0.0000000000000000    0.0000000000000000    0.0000000000000000 Ge
   0.0000000000000000    0.5000000000000000    0.5000000000000000 Ge
   0.5000000000000000    0.0000000000000000    0.5000000000000000 Ge
   0.5000000000000000    0.5000000000000000    0.0000000000000000 Ge
   0.5000000000000000    0.0000000000000000    0.0000000000000000 Nb
   0.0000000000000000    0.5000000000000000    0.0000000000000000 Nb
   0.0000000000000000    0.0000000000000000    0.5000000000000000 Nb
   0.5000000000000000    0.5000000000000000    0.5000000000000000 Nb
   0.2500000000000000    0.2500000000000000    0.2500000000000000 Co
   0.7500000000000000    0.7500000000000000    0.2500000000000000 Co
   0.7500000000000000    0.2500000000000000    0.7500000000000000 Co
   0.2500000000000000    0.7500000000000000    0.7500000000000000 Co
   0.2500000000000000    0.2500000000000000    0.7500000000000000 Co
   0.7500000000000000    0.7500000000000000    0.7500000000000000 Co
   0.2500000000000000    0.7500000000000000    0.2500000000000000 Co
   0.7500000000000000    0.2500000000000000    0.2500000000000000 Co
