Eu2 Cr6 Sb8 O24
1.0
   8.0325517482738267    0.0000000000000000   -0.0005251730918277
  -0.0005252074290848    8.0325517311035153   -0.0005251730918277
   0.0000000000000000    0.0000000000000000    8.0325517654418945
Eu Cr Sb O
2 6 8 24
direct
   0.0000000000000000    0.0000000000000000    0.0000000000000000 Eu
   0.5000000000000000    0.5000000000000000    0.5000000000000000 Eu
   0.5000000000000000    0.0000000000000000    0.0000000000000000 Cr
   0.0000000000000000    0.5000000000000000    0.0000000000000000 Cr
   0.0000000000000000    0.0000000000000000    0.5000000000000000 Cr
   0.0000000000000000    0.5000000000000000    0.5000000000000000 Cr
   0.5000000000000000    0.0000000000000000    0.5000000000000000 Cr
   0.5000000000000000    0.5000000000000000    0.0000000000000000 Cr
   0.2500000000000000    0.2500000000000000    0.2500000000000000 Sb
   0.7500000000000000    0.7500000000000000    0.2500000000000000 Sb
   0.7500000000000000    0.2500000000000000    0.7500000000000000 Sb
   0.2500000000000000    0.7500000000000000    0.7500000000000000 Sb
   0.7500000000000000    0.7500000000000000    0.7500000000000000 Sb
   0.2500000000000000    0.2500000000000000    0.7500000000000000 Sb
   0.2500000000000000    0.7500000000000000    0.2500000000000000 Sb
   0.7500000000000000    0.2500000000000000    0.2500000000000000 Sb
   0.5000000000000000    0.8076171875000000    0.6730957031250000 O
   0.5000000000000000    0.1923828125000000    0.6730957031250000 O
   0.5000000000000000    0.8076171875000000    0.3269042968750000 O
   0.5000000000000000    0.1923828125000000    0.3269042968750000 O
   0.6730957031250000    0.5000000000000000    0.8076171875000000 O
   0.6730957031250000    0.5000000000000000    0.1923828125000000 O
   0.3269042968750000    0.5000000000000000    0.8076171875000000 O
   0.3269042968750000    0.5000000000000000    0.1923828125000000 O
   0.8076171875000000    0.6730957031250000    0.5000000000000000 O
   0.1923828125000000    0.6730957031250000    0.5000000000000000 O
   0.8076171875000000    0.3269042968750000    0.5000000000000000 O
   0.1923828125000000    0.3269042968750000    0.5000000000000000 O
   0.0000000000000000    0.3076171875000000    0.1730957031250000 O
   0.0000000000000000    0.6923828125000000    0.1730957031250000 O
   0.0000000000000000    0.3076171875000000    0.8269042968750000 O
   0.0000000000000000    0.6923828125000000    0.8269042968750000 O
   0.1730957031250000    0.0000000000000000    0.3076171875000000 O
   0.1730957031250000    0.0000000000000000    0.6923828125000000 O
   0.8269042968750000    0.0000000000000000    0.3076171875000000 O
   0.8269042968750000    0.0000000000000000    0.6923828125000000 O
   0.3076171875000000    0.1730957031250000    0.0000000000000000 O
   0.6923828125000000    0.1730957031250000    0.0000000000000000 O
   0.3076171875000000    0.8269042968750000    0.0000000000000000 O
   0.6923828125000000    0.8269042968750000    0.0000000000000000 O
