Lu4 Tl4 V2 Ru2 S10
1.0
   4.2466478257014213    0.0000000000000000   -0.0002776484034487
  -0.0002776665568627    4.2466478166238240   -0.0002776484034487
   0.0000000000000000    0.0000000000000000   27.7611465454101562
V Ru S Lu Tl
2 2 10 4 4
direct
   0.5000000000000000    0.5000000000000000    0.0000000000000000 V
   0.0000000000000000    0.0000000000000000    0.5000000000000000 V
   0.0000000000000000    0.5000000000000000    0.2500000000000000 Ru
   0.5000000000000000    0.0000000000000000    0.7500000000000000 Ru
   0.5000000000000000    0.0000000000000000    0.2500000000000000 S
   0.0000000000000000    0.5000000000000000    0.7500000000000000 S
   0.0000000000000000    0.0000000000000000    0.3146972656250000 S
   0.0000000000000000    0.0000000000000000    0.6853027343750000 S
   0.5000000000000000    0.5000000000000000    0.8146972656250000 S
   0.5000000000000000    0.5000000000000000    0.1853027343750000 S
   0.5000000000000000    0.5000000000000000    0.6823120117187500 S
   0.5000000000000000    0.5000000000000000    0.3176879882812500 S
   0.0000000000000000    0.0000000000000000    0.1823120117187500 S
   0.0000000000000000    0.0000000000000000    0.8176879882812500 S
   0.5000000000000000    0.0000000000000000    0.3749389648437500 Lu
   0.0000000000000000    0.5000000000000000    0.6250610351562500 Lu
   0.0000000000000000    0.5000000000000000    0.8749389648437500 Lu
   0.5000000000000000    0.0000000000000000    0.1250610351562500 Lu
   0.5000000000000000    0.0000000000000000    0.9266357421875000 Tl
   0.0000000000000000    0.5000000000000000    0.0733642578125000 Tl
   0.0000000000000000    0.5000000000000000    0.4266357421875000 Tl
   0.5000000000000000    0.0000000000000000    0.5733642578125000 Tl
