Li6 Bi2 O12
1.0
   7.3845448056137393    0.0000000000000000   -4.2963987234991539
  -0.0006182786897800    5.4387506970986141   -0.0003555888125272
   0.0000000000000000    0.0000000000000000    6.5260515213012695
Bi Li O
2 6 12
direct
   0.0000000000000000    0.0000000000000000    0.0000000000000000 Bi
   0.5000000000000000    0.5000000000000000    0.0000000000000000 Bi
   0.5000000000000000    0.0000000000000000    0.5000000000000000 Li
   0.0000000000000000    0.5000000000000000    0.5000000000000000 Li
   0.2335510253906250    0.0000000000000000    0.6037750244140625 Li
   0.7664489746093750    0.0000000000000000    0.3962249755859375 Li
   0.7335510253906250    0.5000000000000000    0.6037750244140625 Li
   0.2664489746093750    0.5000000000000000    0.3962249755859375 Li
   0.2680969238281250    0.0000000000000000    0.1134643554687500 O
   0.7319030761718750    0.0000000000000000    0.8865356445312500 O
   0.7680969238281250    0.5000000000000000    0.1134643554687500 O
   0.2319030761718750    0.5000000000000000    0.8865356445312500 O
   0.9186401367187500    0.2352600097656250    0.6983489990234375 O
   0.0813598632812500    0.2352600097656250    0.3016510009765625 O
   0.0813598632812500    0.7647399902343750    0.3016510009765625 O
   0.9186401367187500    0.7647399902343750    0.6983489990234375 O
   0.4186401367187500    0.7352600097656250    0.6983489990234375 O
   0.5813598632812500    0.7352600097656250    0.3016510009765625 O
   0.5813598632812500    0.2647399902343750    0.3016510009765625 O
   0.4186401367187500    0.2647399902343750    0.6983489990234375 O
