Tc6 Pd2
1.0
   5.4256486776737169    0.0000000000000000   -0.0003547321922747
  -2.7125165350369120    4.6989272840398266   -0.0003547321922747
   0.0000000000000000    0.0000000000000000    4.2204513549804688
Pd Tc
2 6
direct
   0.6666666865348816    0.3333333432674408    0.2500000000000000 Pd
   0.3333333134651184    0.6666666269302368    0.7500000000000000 Pd
   0.4686279296875000    0.9372558593750000    0.2500000000000000 Tc
   0.0627441406250000    0.5313720703125000    0.2500000000000000 Tc
   0.4686279296875000    0.5313720703125000    0.2500000000000000 Tc
   0.5313720703125000    0.0627441406250000    0.7500000000000000 Tc
   0.9372558593750000    0.4686279296875000    0.7500000000000000 Tc
   0.5313720703125000    0.4686279296875000    0.7500000000000000 Tc
