Yb4 In4 Cu16
1.0
   7.0369500963490035    0.0000000000000000   -0.0004600800536307
  -0.0004601101349264    7.0369500813068804   -0.0004600800536307
   0.0000000000000000    0.0000000000000000    7.0369501113891602
Yb In Cu
4 4 16
direct
   0.0000000000000000    0.0000000000000000    0.0000000000000000 Yb
   0.0000000000000000    0.5000000000000000    0.5000000000000000 Yb
   0.5000000000000000    0.0000000000000000    0.5000000000000000 Yb
   0.5000000000000000    0.5000000000000000    0.0000000000000000 Yb
   0.2500000000000000    0.2500000000000000    0.7500000000000000 In
   0.7500000000000000    0.7500000000000000    0.7500000000000000 In
   0.7500000000000000    0.2500000000000000    0.2500000000000000 In
   0.2500000000000000    0.7500000000000000    0.2500000000000000 In
   0.3754425048828125    0.1245574951171875    0.1245574951171875 Cu
   0.6245574951171875    0.8754425048828125    0.1245574951171875 Cu
   0.6245574951171875    0.1245574951171875    0.8754425048828125 Cu
   0.3754425048828125    0.8754425048828125    0.8754425048828125 Cu
   0.1245574951171875    0.3754425048828125    0.1245574951171875 Cu
   0.1245574951171875    0.6245574951171875    0.8754425048828125 Cu
   0.8754425048828125    0.6245574951171875    0.1245574951171875 Cu
   0.8754425048828125    0.3754425048828125    0.8754425048828125 Cu
   0.1245574951171875    0.1245574951171875    0.3754425048828125 Cu
   0.8754425048828125    0.1245574951171875    0.6245574951171875 Cu
   0.1245574951171875    0.8754425048828125    0.6245574951171875 Cu
   0.8754425048828125    0.8754425048828125    0.3754425048828125 Cu
   0.3754425048828125    0.6245574951171875    0.6245574951171875 Cu
   0.6245574951171875    0.3754425048828125    0.6245574951171875 Cu
   0.6245574951171875    0.6245574951171875    0.3754425048828125 Cu
   0.3754425048828125    0.3754425048828125    0.3754425048828125 Cu
