Li3 Nb3 O6
1.0
   3.1724493435765422    0.0000000000000000   -0.0002074166569535
  -1.5860446947899245    2.7475256256653857   -0.0002074166569535
   0.0000000000000000    0.0000000000000000   15.6829481124877930
Nb Li O
3 3 6
direct
   0.0000000000000000    0.0000000000000000    0.0000000000000000 Nb
   0.6666666865348816    0.3333333432674408    0.3333333432674408 Nb
   0.3333333432674408    0.6666666865348816    0.6666666865348816 Nb
   0.3333333432674408    0.6666666865348816    0.1666666716337204 Li
   0.6666666865348816    0.3333333432674408    0.8333333134651184 Li
   0.0000000000000000    0.0000000000000000    0.5000000000000000 Li
   0.6666666865348816    0.3333333432674408    0.0661621093750000 O
   0.3333333432674408    0.6666666865348816    0.9338378906250000 O
   0.3333333730697632    0.6666666865348816    0.3994954526424408 O
   0.0000000000000000    0.0000000000000000    0.2671712338924408 O
   0.0000000000000000    0.0000000000000000    0.7328287959098816 O
   0.6666666865348816    0.3333333730697632    0.6005045771598816 O
