Li4 W2 N6
1.0
   5.0768682648629015    0.0000000000000000   -2.0924045541710825
  -0.0005925695084005    6.0675496636013415   -0.0003967000688832
   0.0000000000000000    0.0000000000000000    6.2902512550354004
Li N W
4 6 2
direct
   0.5010986328125000    0.9838867187500000    0.6305160522460938 Li
   0.4989013671875000    0.4838867187500000    0.3694839477539062 Li
   0.0246582031250000    0.3115234375000000    0.6455688476562500 Li
   0.9753417968750000    0.8115234375000000    0.3544311523437500 Li
   0.3381271362304688    0.7970428466796875    0.3323059082031250 N
   0.6618728637695312    0.2970428466796875    0.6676940917968750 N
   0.8893432617187500    0.9962768554687500    0.0144805908203125 N
   0.1106567382812500    0.4962768554687500    0.9855194091796875 N
   0.1592407226562500    0.9149169921875000    0.7188110351562500 N
   0.8407592773437500    0.4149169921875000    0.2811889648437500 N
   0.8161468505859375    0.3205566406250000    0.9958801269531250 W
   0.1838531494140625    0.8205566406250000    0.0041198730468750 W
