Cs8 Ni2 O8
1.0
   7.5085506278727845    0.0000000000000000   -0.0004909135816314
  -0.0004909456789077    7.5085506118225727   -0.0004909135816314
   0.0000000000000000    0.0000000000000000   10.3643484115600586
Ni Cs O
2 8 8
direct
   0.0000000000000000    0.0000000000000000    0.0000000000000000 Ni
   0.5000000000000000    0.5000000000000000    0.5000000000000000 Ni
   0.5000000000000000    0.5000000000000000    0.3221893310546875 Cs
   0.5000000000000000    0.5000000000000000    0.6778106689453125 Cs
   0.0000000000000000    0.0000000000000000    0.8221893310546875 Cs
   0.0000000000000000    0.0000000000000000    0.1778106689453125 Cs
   0.0000000000000000    0.0000000000000000    0.4099121093750000 Cs
   0.0000000000000000    0.0000000000000000    0.5900878906250000 Cs
   0.5000000000000000    0.5000000000000000    0.9099121093750000 Cs
   0.5000000000000000    0.5000000000000000    0.0900878906250000 Cs
   0.7964477539062500    0.7964477539062500    0.0000000000000000 O
   0.2035522460937500    0.2035522460937500    0.0000000000000000 O
   0.2035522460937500    0.7964477539062500    0.0000000000000000 O
   0.7964477539062500    0.2035522460937500    0.0000000000000000 O
   0.2964477539062500    0.2964477539062500    0.5000000000000000 O
   0.7035522460937500    0.7035522460937500    0.5000000000000000 O
   0.7035522460937500    0.2964477539062500    0.5000000000000000 O
   0.2964477539062500    0.7035522460937500    0.5000000000000000 O
