Pm1 Sm3
1.0
   5.0981488118880902    0.0000000000000000   -0.0003333200529598
  -0.0003333418463390    5.0981488009903320   -0.0003333200529598
   0.0000000000000000    0.0000000000000000    5.0981488227844238
Pm Sm
1 3
direct
   0.0000000000000000    0.0000000000000000    0.0000000000000000 Pm
   0.5000000000000000    0.5000000000000000    0.0000000000000000 Sm
   0.0000000000000000    0.5000000000000000    0.5000000000000000 Sm
   0.5000000000000000    0.0000000000000000    0.5000000000000000 Sm
