Tl8 Fe2 Cu2 Te8
1.0
   8.8447532464768646    0.0000000000000000   -0.0005782753170440
  -0.0005783131262702    8.8447532275703971   -0.0005782753170440
   0.0000000000000000    0.0000000000000000    8.7006530761718750
Fe Cu Te Tl
2 2 8 8
direct
   0.0000000000000000    0.0000000000000000    0.5000000000000000 Fe
   0.5000000000000000    0.5000000000000000    0.0000000000000000 Fe
   0.0000000000000000    0.5000000000000000    0.2500000000000000 Cu
   0.5000000000000000    0.0000000000000000    0.7500000000000000 Cu
   0.2792053222656250    0.3859863281250000    0.1607971191406250 Te
   0.7207946777343750    0.6140136718750000    0.1607971191406250 Te
   0.3859863281250000    0.7207946777343750    0.8392028808593750 Te
   0.6140136718750000    0.2792053222656250    0.8392028808593750 Te
   0.7792053222656250    0.8859863281250000    0.6607971191406250 Te
   0.2207946777343750    0.1140136718750000    0.6607971191406250 Te
   0.8859863281250000    0.2207946777343750    0.3392028808593750 Te
   0.1140136718750000    0.7792053222656250    0.3392028808593750 Te
   0.2152709960937500    0.4864044189453125    0.5678710937500000 Tl
   0.7847290039062500    0.5135955810546875    0.5678710937500000 Tl
   0.4864044189453125    0.7847290039062500    0.4321289062500000 Tl
   0.5135955810546875    0.2152709960937500    0.4321289062500000 Tl
   0.7152709960937500    0.9864044189453125    0.0678710937500000 Tl
   0.2847290039062500    0.0135955810546875    0.0678710937500000 Tl
   0.9864044189453125    0.2847290039062500    0.9321289062500000 Tl
   0.0135955810546875    0.7152709960937500    0.9321289062500000 Tl
