Hf2 Mn6
1.0
   5.8710517757818099    0.0000000000000000   -0.0003838529162331
  -2.9351928158190428    5.0846722694658526   -0.0003838529162331
   0.0000000000000000    0.0000000000000000    4.3907485008239746
Hf Mn
2 6
direct
   0.6666666865348816    0.3333333432674408    0.2500000000000000 Hf
   0.3333333134651184    0.6666666269302368    0.7500000000000000 Hf
   0.0737609863281250    0.5368804931640625    0.2500000000000000 Mn
   0.4631195068359375    0.5368804931640625    0.2500000000000000 Mn
   0.4631195068359375    0.9262390136718750    0.2500000000000000 Mn
   0.9262390136718750    0.4631195068359375    0.7500000000000000 Mn
   0.5368804931640625    0.4631195068359375    0.7500000000000000 Mn
   0.5368804931640625    0.0737609863281250    0.7500000000000000 Mn
