Nd2 Si2 Pd2
1.0
   4.4955501460312561    0.0000000000000000   -0.0002939217877016
  -2.2475200348625881    3.8934078656586855   -0.0002939217877016
   0.0000000000000000    0.0000000000000000    7.1286497116088867
Nd Pd Si
2 2 2
direct
   0.0000000000000000    0.0000000000000000    0.0000000000000000 Nd
   0.0000000000000000    0.0000000000000000    0.5000000000000000 Nd
   0.3333333432674408    0.6666666865348816    0.2500000000000000 Pd
   0.6666666269302368    0.3333333134651184    0.7500000000000000 Pd
   0.6666666865348816    0.3333333432674408    0.2500000000000000 Si
   0.3333333134651184    0.6666666269302368    0.7500000000000000 Si
