Cr4 O12
1.0
   6.0752800132998779    0.0000000000000000   -1.3558990004301636
  -0.0003934691446631    4.8230499957670840   -0.0003153339270164
   0.0000000000000000    0.0000000000000000    8.5434503555297852
O Cr
12 4
direct
   0.5187988281250000    0.4979553222656250    0.4306640625000000 O
   0.4812011718750000    0.9979553222656250    0.5693359375000000 O
   0.2120361328125000    0.2259521484375000    0.2992553710937500 O
   0.7879638671875000    0.7259521484375000    0.7007446289062500 O
   0.9944458007812500    0.5387573242187500    0.4552307128906250 O
   0.0055541992187500    0.0387573242187500    0.5447692871093750 O
   0.4437561035156250    0.8565673828125000    0.8788452148437500 O
   0.5562438964843750    0.3565673828125000    0.1211547851562500 O
   0.8275146484375000    0.1931653022766113    0.8553161621093750 O
   0.1724853515625000    0.6931653022766113    0.1446838378906250 O
   0.3326110839843750    0.3406066894531250    0.6944885253906250 O
   0.6673889160156250    0.8406066894531250    0.3055114746093750 O
   0.6006469726562500    0.0210113525390625    0.7753906250000000 Cr
   0.3993530273437500    0.5210113525390625    0.2246093750000000 Cr
   0.7924346923828125    0.7650756835937500    0.4914550781250000 Cr
   0.2075653076171875    0.2650756835937500    0.5085449218750000 Cr
