Li3 Mg6 Mn9 S24
1.0
   7.1024494019341091    0.0000000000000000   -0.0004643624378474
  -3.5508217701757854    6.1511342257733155   -0.0004643624378474
   0.0000000000000000    0.0000000000000000   16.6916503906250000
Li Mg S Mn S
3 6 6 9 18
direct
   0.3333333432674408    0.6666666865348816    0.1666666716337204 Li
   0.6666666865348816    0.3333333432674408    0.8333333134651184 Li
   0.0000000000000000    0.0000000000000000    0.5000000000000000 Li
   0.0000000000000000    0.0000000000000000    0.1135559082031250 Mg
   0.0000000000000000    0.0000000000000000    0.8864440917968750 Mg
   0.6666666865348816    0.3333333432674408    0.4468892514705658 Mg
   0.6666666865348816    0.3333333432674408    0.2197774350643158 Mg
   0.3333333432674408    0.6666666865348816    0.7802225947380066 Mg
   0.3333333432674408    0.6666666865348816    0.5531107783317566 Mg
   0.0000000000000000    0.0000000000000000    0.2633666992187500 S
   0.0000000000000000    0.0000000000000000    0.7366333007812500 S
   0.6666666865348816    0.3333333432674408    0.5967000722885132 S
   0.6666666865348816    0.3333333432674408    0.0699666440486908 S
   0.3333333432674408    0.6666666865348816    0.9300333857536316 S
   0.3333333432674408    0.6666666865348816    0.4032999873161316 S
   0.5000000000000000    0.5000000000000000    0.0000000000000000 Mn
   0.5000000000000000    0.0000000000000000    0.0000000000000000 Mn
   0.0000000000000000    0.5000000000000000    0.0000000000000000 Mn
   0.1666667461395264    0.8333333730697632    0.3333333432674408 Mn
   0.1666666865348816    0.3333333432674408    0.3333333432674408 Mn
   0.6666666865348816    0.8333333730697632    0.3333333432674408 Mn
   0.8333333730697632    0.1666667461395264    0.6666666865348816 Mn
   0.8333333730697632    0.6666666865348816    0.6666666865348816 Mn
   0.3333333432674408    0.1666666865348816    0.6666666865348816 Mn
   0.4887237548828125    0.9774475097656250    0.2530479431152344 S
   0.0225524902343750    0.5112762451171875    0.2530479431152344 S
   0.4887237548828125    0.5112762451171875    0.2530479431152344 S
   0.9774475097656250    0.4887237548828125    0.7469520568847656 S
   0.5112762451171875    0.0225524902343750    0.7469520568847656 S
   0.5112762451171875    0.4887237548828125    0.7469520568847656 S
   0.1553905010223389    0.3107808828353882    0.5863813161849976 S
   0.6892191767692566    0.8446096181869507    0.5863813161849976 S
   0.1553905010223389    0.8446096181869507    0.5863813161849976 S
   0.6441142559051514    0.8220571279525757    0.0802854001522064 S
   0.1779429316520691    0.3558858633041382    0.0802854001522064 S
   0.1779429316520691    0.8220571279525757    0.0802854001522064 S
   0.8220571279525757    0.6441142559051514    0.9197146296501160 S
   0.3558858633041382    0.1779429316520691    0.9197146296501160 S
   0.8220571279525757    0.1779429316520691    0.9197146296501160 S
   0.3107808828353882    0.1553905010223389    0.4136187434196472 S
   0.8446096181869507    0.6892191767692566    0.4136187434196472 S
   0.8446096181869507    0.1553905010223389    0.4136187434196472 S
