Li2 Mg4 Ag2 Sn2
1.0
   4.1418504626441566    0.0000000000000000   -0.0002707966884648
  -0.0003427638510211    5.2422494664204580   -0.0003427414416457
   0.0000000000000000    0.0000000000000000    9.1853513717651367
Sn Li Ag Mg
2 2 2 4
direct
   0.2500000000000000    0.2500000000000000    0.9479980468750000 Sn
   0.7500000000000000    0.7500000000000000    0.0520019531250000 Sn
   0.2500000000000000    0.7500000000000000    0.8526535034179688 Li
   0.7500000000000000    0.2500000000000000    0.1473464965820312 Li
   0.2500000000000000    0.7500000000000000    0.5565795898437500 Ag
   0.7500000000000000    0.2500000000000000    0.4434204101562500 Ag
   0.2500000000000000    0.5022583007812500    0.2846069335937500 Mg
   0.2500000000000000    0.9977416992187500    0.2846069335937500 Mg
   0.7500000000000000    0.0022583007812500    0.7153930664062500 Mg
   0.7500000000000000    0.4977416992187500    0.7153930664062500 Mg
