Lu3 Mg3 Ni1 Bi2
1.0
   6.9321484417573238    0.0000000000000000   -0.0004532280580637
  -3.4656809514727480    6.0036436903898158   -0.0004532280580637
   0.0000000000000000    0.0000000000000000    4.1680507659912109
Ni Bi Lu Mg
1 2 3 3
direct
   0.0000000000000000    0.0000000000000000    0.0000000000000000 Ni
   0.6666666865348816    0.3333333432674408    0.5000000000000000 Bi
   0.3333333432674408    0.6666666865348816    0.5000000000000000 Bi
   0.3975706100463867    0.3975706100463867    0.0000000000000000 Lu
   0.6024293899536133    0.0000000000000000    0.0000000000000000 Lu
   0.0000000000000000    0.6024293899536133    0.0000000000000000 Lu
   0.2265625000000000    0.0000000000000000    0.5000000000000000 Mg
   0.0000000000000000    0.2265625000000000    0.5000000000000000 Mg
   0.7734375000000000    0.7734375000000000    0.5000000000000000 Mg
