Mn6 V3 Ga3 Ni3 As6
1.0
   4.1549482256776855    0.0000000000000000   -0.0002716530281342
  -2.0772383974565130    3.5984267948916853   -0.0002716530281342
   0.0000000000000000    0.0000000000000000   22.0364494323730469
V Mn Ni Ga As
3 6 3 3 6
direct
   0.3333333432674408    0.6666666865348816    0.7775268554687500 V
   0.0000000000000000    0.0000000000000000    0.1108602285385132 V
   0.6666666865348816    0.3333333730697632    0.4441936016082764 V
   0.6666666865348816    0.3333333432674408    0.3192291259765625 Mn
   0.3333333730697632    0.6666666865348816    0.6525624990463257 Mn
   0.0000000000000000    0.0000000000000000    0.9858958125114441 Mn
   0.3333333432674408    0.6666666865348816    0.5409126281738281 Mn
   0.0000000000000000    0.0000000000000000    0.8742460012435913 Mn
   0.6666666865348816    0.3333333730697632    0.2075793743133545 Mn
   0.6666666865348816    0.3333333432674408    0.7084960937500000 Ni
   0.3333333730697632    0.6666666865348816    0.0418294668197632 Ni
   0.0000000000000000    0.0000000000000000    0.3751628398895264 Ni
   0.0000000000000000    0.0000000000000000    0.4936218261718750 Ga
   0.6666666865348816    0.3333333432674408    0.8269551992416382 Ga
   0.3333333432674408    0.6666666865348816    0.1602885723114014 Ga
   0.0000000000000000    0.0000000000000000    0.7255783081054688 As
   0.6666666865348816    0.3333333432674408    0.0589116811752319 As
   0.3333333432674408    0.6666666865348816    0.3922450542449951 As
   0.3333333432674408    0.6666666865348816    0.9335937500000000 As
   0.0000000000000000    0.0000000000000000    0.2669271230697632 As
   0.6666666865348816    0.3333333730697632    0.6002604961395264 As
