Al2 In2 Cu2 Te12
1.0
  11.7146929226391237    0.0000000000000000   -3.8020958758803904
  -0.0007544080596561    8.3862513977285129   -0.0005482981910645
   0.0000000000000000    0.0000000000000000    7.5740494728088379
Cu Al In Te
2 2 2 12
direct
   0.0000000000000000    0.3446350097656250    0.0000000000000000 Cu
   0.5000000000000000    0.8446350097656250    0.0000000000000000 Cu
   0.0000000000000000    0.3257446289062500    0.5000000000000000 Al
   0.5000000000000000    0.8257446289062500    0.5000000000000000 Al
   0.5000000000000000    0.3355712890625000    0.5000000000000000 In
   0.0000000000000000    0.8355712890625000    0.5000000000000000 In
   0.2236328125000000    0.3553237915039062    0.4942626953125000 Te
   0.7763671875000000    0.3553237915039062    0.5057373046875000 Te
   0.7236328125000000    0.8553237915039062    0.4942626953125000 Te
   0.2763671875000000    0.8553237915039062    0.5057373046875000 Te
   0.5771102905273438    0.5976562500000000    0.7968559265136719 Te
   0.4228897094726562    0.5976562500000000    0.2031440734863281 Te
   0.0771102905273438    0.0976562500000000    0.7968559265136719 Te
   0.9228897094726562    0.0976562500000000    0.2031440734863281 Te
   0.0501098632812500    0.5785827636718750    0.7955932617187500 Te
   0.9498901367187500    0.5785827636718750    0.2044067382812500 Te
   0.5501098632812500    0.0785827636718750    0.7955932617187500 Te
   0.4498901367187500    0.0785827636718750    0.2044067382812500 Te
