Sr8 I12
1.0
  17.9110527081545676    0.0000000000000000   -5.3144210103291991
  -0.0003547814273342    4.0501508470815102   -0.0002648013131504
   0.0000000000000000    0.0000000000000000   10.8883495330810547
Sr I
8 12
direct
   0.1511840820312500    0.0000000000000000    0.3381595611572266 Sr
   0.8488159179687500    0.0000000000000000    0.6618404388427734 Sr
   0.6511840820312500    0.5000000000000000    0.3381595611572266 Sr
   0.3488159179687500    0.5000000000000000    0.6618404388427734 Sr
   0.6618957519531250    0.0000000000000000    0.8344726562500000 Sr
   0.3381042480468750    0.0000000000000000    0.1655273437500000 Sr
   0.1618957519531250    0.5000000000000000    0.8344726562500000 Sr
   0.8381042480468750    0.5000000000000000    0.1655273437500000 Sr
   0.8078460693359375    0.0000000000000000    0.3603515625000000 I
   0.1921539306640625    0.0000000000000000    0.6396484375000000 I
   0.3078460693359375    0.5000000000000000    0.3603515625000000 I
   0.6921539306640625    0.5000000000000000    0.6396484375000000 I
   0.8598022460937500    0.0000000000000000    0.9494018554687500 I
   0.1401977539062500    0.0000000000000000    0.0505981445312500 I
   0.3598022460937500    0.5000000000000000    0.9494018554687500 I
   0.6401977539062500    0.5000000000000000    0.0505981445312500 I
   0.5169067382812500    0.0000000000000000    0.3149414062500000 I
   0.4830932617187500    0.0000000000000000    0.6850585937500000 I
   0.0169067382812500    0.5000000000000000    0.3149414062500000 I
   0.9830932617187500    0.5000000000000000    0.6850585937500000 I
