Ce4 Te8
1.0
   3.8536491311678471    0.0000000000000000   -0.0002519539110930
  -0.0007873088358339   12.0411452732323028   -0.0007872573627884
   0.0000000000000000    0.0000000000000000   10.9800491333007812
Te Ce
8 4
direct
   0.0000000000000000    0.0000000000000000    0.0000000000000000 Te
   0.0000000000000000    0.0000000000000000    0.5000000000000000 Te
   0.5000000000000000    0.5000000000000000    0.0000000000000000 Te
   0.5000000000000000    0.5000000000000000    0.5000000000000000 Te
   0.0000000000000000    0.7288818359375000    0.2500000000000000 Te
   0.0000000000000000    0.2711181640625000    0.7500000000000000 Te
   0.5000000000000000    0.2288818359375000    0.2500000000000000 Te
   0.5000000000000000    0.7711181640625000    0.7500000000000000 Te
   0.0000000000000000    0.4487915039062500    0.2500000000000000 Ce
   0.0000000000000000    0.5512084960937500    0.7500000000000000 Ce
   0.5000000000000000    0.9487915039062500    0.2500000000000000 Ce
   0.5000000000000000    0.0512084960937500    0.7500000000000000 Ce
