Nb21 Ga18
1.0
   5.5435523868333405    0.0000000000000000   -0.0003624408080941
  -2.7714617007926101    4.8010387528747733   -0.0003624408080941
   0.0000000000000000    0.0000000000000000   27.6825485229492188
Nb Ga
21 18
direct
   0.3333333432674408    0.6666666865348816    0.1666666716337204 Nb
   0.6666666865348816    0.3333333432674408    0.8333333134651184 Nb
   0.0000000000000000    0.0000000000000000    0.5000000000000000 Nb
   0.0000000000000000    0.0000000000000000    0.3311767578125000 Nb
   0.0000000000000000    0.0000000000000000    0.6688232421875000 Nb
   0.6666666865348816    0.3333333432674408    0.6645101308822632 Nb
   0.6666666865348816    0.3333333432674408    0.0021565854549408 Nb
   0.3333333432674408    0.6666666865348816    0.9978434443473816 Nb
   0.3333333432674408    0.6666666865348816    0.3354899287223816 Nb
   0.0000000000000000    0.0000000000000000    0.9545898437500000 Nb
   0.0000000000000000    0.0000000000000000    0.0454101562500000 Nb
   0.6666666865348816    0.3333333432674408    0.2879232168197632 Nb
   0.6666666865348816    0.3333333432674408    0.3787435293197632 Nb
   0.3333333432674408    0.6666666865348816    0.6212565898895264 Nb
   0.3333333432674408    0.6666666865348816    0.7120768427848816 Nb
   0.6666666865348816    0.3333333432674408    0.1795425415039062 Nb
   0.3333333432674408    0.6666666865348816    0.8204574584960938 Nb
   0.3333333730697632    0.6666666865348816    0.5128759145736694 Nb
   0.0000000000000000    0.0000000000000000    0.1537908017635345 Nb
   0.0000000000000000    0.0000000000000000    0.8462092280387878 Nb
   0.6666666865348816    0.3333333730697632    0.4871241450309753 Nb
   0.9936523437500000    0.4968261718750000    0.0877380371093750 Ga
   0.5031738281250000    0.4968261718750000    0.0877380371093750 Ga
   0.5031738281250000    0.0063476562500000    0.0877380371093750 Ga
   0.4968261718750000    0.9936523437500000    0.9122619628906250 Ga
   0.4968261718750000    0.5031738281250000    0.9122619628906250 Ga
   0.0063476562500000    0.5031738281250000    0.9122619628906250 Ga
   0.6603190898895264    0.8301595449447632    0.4210713803768158 Ga
   0.1698405146598816    0.8301595449447632    0.4210713803768158 Ga
   0.1698405146598816    0.3396810293197632    0.4210713803768158 Ga
   0.1634929180145264    0.3269857168197632    0.2455953061580658 Ga
   0.1634929180145264    0.8365072011947632    0.2455953061580658 Ga
   0.6730143427848816    0.8365072011947632    0.2455953061580658 Ga
   0.3269857168197632    0.1634929180145264    0.7544047236442566 Ga
   0.8365072011947632    0.1634929180145264    0.7544047236442566 Ga
   0.8365072011947632    0.6730143427848816    0.7544047236442566 Ga
   0.8301595449447632    0.6603190898895264    0.5789286494255066 Ga
   0.8301595449447632    0.1698405146598816    0.5789286494255066 Ga
   0.3396810293197632    0.1698405146598816    0.5789286494255066 Ga
