Ba8 Lu4 Bi4 O24
1.0
   8.4517507372460319    0.0000000000000000   -0.0005525805752812
  -0.0005526167045146    8.4517507191796444   -0.0005525805752812
   0.0000000000000000    0.0000000000000000    8.4517507553100586
Bi Lu Ba O
4 4 8 24
direct
   0.0000000000000000    0.0000000000000000    0.0000000000000000 Bi
   0.0000000000000000    0.5000000000000000    0.5000000000000000 Bi
   0.5000000000000000    0.0000000000000000    0.5000000000000000 Bi
   0.5000000000000000    0.5000000000000000    0.0000000000000000 Bi
   0.5000000000000000    0.0000000000000000    0.0000000000000000 Lu
   0.0000000000000000    0.5000000000000000    0.0000000000000000 Lu
   0.0000000000000000    0.0000000000000000    0.5000000000000000 Lu
   0.5000000000000000    0.5000000000000000    0.5000000000000000 Lu
   0.2500000000000000    0.2500000000000000    0.2500000000000000 Ba
   0.7500000000000000    0.7500000000000000    0.2500000000000000 Ba
   0.7500000000000000    0.2500000000000000    0.7500000000000000 Ba
   0.2500000000000000    0.7500000000000000    0.7500000000000000 Ba
   0.2500000000000000    0.2500000000000000    0.7500000000000000 Ba
   0.7500000000000000    0.7500000000000000    0.7500000000000000 Ba
   0.2500000000000000    0.7500000000000000    0.2500000000000000 Ba
   0.7500000000000000    0.2500000000000000    0.2500000000000000 Ba
   0.7534790039062500    0.0000000000000000    0.0000000000000000 O
   0.2465209960937500    0.0000000000000000    0.0000000000000000 O
   0.0000000000000000    0.7534790039062500    0.0000000000000000 O
   0.0000000000000000    0.2465209960937500    0.0000000000000000 O
   0.0000000000000000    0.0000000000000000    0.7534790039062500 O
   0.0000000000000000    0.0000000000000000    0.2465209960937500 O
   0.7534790039062500    0.5000000000000000    0.5000000000000000 O
   0.2465209960937500    0.5000000000000000    0.5000000000000000 O
   0.0000000000000000    0.2534790039062500    0.5000000000000000 O
   0.0000000000000000    0.7465209960937500    0.5000000000000000 O
   0.0000000000000000    0.5000000000000000    0.2534790039062500 O
   0.0000000000000000    0.5000000000000000    0.7465209960937500 O
   0.2534790039062500    0.0000000000000000    0.5000000000000000 O
   0.7465209960937500    0.0000000000000000    0.5000000000000000 O
   0.5000000000000000    0.7534790039062500    0.5000000000000000 O
   0.5000000000000000    0.2465209960937500    0.5000000000000000 O
   0.5000000000000000    0.0000000000000000    0.2534790039062500 O
   0.5000000000000000    0.0000000000000000    0.7465209960937500 O
   0.2534790039062500    0.5000000000000000    0.0000000000000000 O
   0.7465209960937500    0.5000000000000000    0.0000000000000000 O
   0.5000000000000000    0.2534790039062500    0.0000000000000000 O
   0.5000000000000000    0.7465209960937500    0.0000000000000000 O
   0.5000000000000000    0.5000000000000000    0.7534790039062500 O
   0.5000000000000000    0.5000000000000000    0.2465209960937500 O
