La4 Tm4 S14
1.0
  16.7519224272324969    0.0000000000000000   -3.6743367119459034
  -0.0002993652354548    3.6833481588255621   -0.0002408195313094
   0.0000000000000000    0.0000000000000000    8.4779510498046875
S La Tm
14 4 4
direct
   0.5000000000000000    0.0000000000000000    0.0000000000000000 S
   0.0000000000000000    0.5000000000000000    0.0000000000000000 S
   0.6709594726562500    0.0000000000000000    0.4038085937500000 S
   0.3290405273437500    0.0000000000000000    0.5961914062500000 S
   0.1709594726562500    0.5000000000000000    0.4038085937500000 S
   0.8290405273437500    0.5000000000000000    0.5961914062500000 S
   0.2082519531250000    0.0000000000000000    0.8626861572265625 S
   0.7917480468750000    0.0000000000000000    0.1373138427734375 S
   0.7082519531250000    0.5000000000000000    0.8626861572265625 S
   0.2917480468750000    0.5000000000000000    0.1373138427734375 S
   0.9898834228515625    0.0000000000000000    0.6795630455017090 S
   0.0101165771484375    0.0000000000000000    0.3204369544982910 S
   0.4898834228515625    0.5000000000000000    0.6795630455017090 S
   0.5101165771484375    0.5000000000000000    0.3204369544982910 S
   0.8734817504882812    0.0000000000000000    0.8801879882812500 La
   0.1265182495117188    0.0000000000000000    0.1198120117187500 La
   0.3734817504882812    0.5000000000000000    0.8801879882812500 La
   0.6265182495117188    0.5000000000000000    0.1198120117187500 La
   0.8659553527832031    0.0000000000000000    0.4105606079101562 Tm
   0.1340446472167969    0.0000000000000000    0.5894393920898438 Tm
   0.3659553527832031    0.5000000000000000    0.4105606079101562 Tm
   0.6340446472167969    0.5000000000000000    0.5894393920898438 Tm
