Cs2 Sr2 Bi2 Cl10
1.0
   5.8972487323603406    0.0000000000000000   -0.0003855656890995
  -0.0003855908984417    5.8972487197544332   -0.0003855656890995
   0.0000000000000000    0.0000000000000000   10.0368480682373047
Sr Cs Cl Bi Cl
2 2 2 2 8
direct
   0.7500000000000000    0.2500000000000000    0.0000000000000000 Sr
   0.2500000000000000    0.7500000000000000    0.0000000000000000 Sr
   0.7500000000000000    0.2500000000000000    0.5000000000000000 Cs
   0.2500000000000000    0.7500000000000000    0.5000000000000000 Cs
   0.2500000000000000    0.2500000000000000    0.0039367675781250 Cl
   0.7500000000000000    0.7500000000000000    0.9960632324218750 Cl
   0.7500000000000000    0.7500000000000000    0.2395019531250000 Bi
   0.2500000000000000    0.2500000000000000    0.7604980468750000 Bi
   0.9844360351562500    0.9844360351562500    0.7564086914062500 Cl
   0.5155639648437500    0.5155639648437500    0.7564086914062500 Cl
   0.5155639648437500    0.9844360351562500    0.7564086914062500 Cl
   0.9844360351562500    0.5155639648437500    0.7564086914062500 Cl
   0.0155639648437500    0.4844360351562500    0.2435913085937500 Cl
   0.4844360351562500    0.0155639648437500    0.2435913085937500 Cl
   0.4844360351562500    0.4844360351562500    0.2435913085937500 Cl
   0.0155639648437500    0.0155639648437500    0.2435913085937500 Cl
