Ti4 Co8 Sn4
1.0
   6.0544514526664388    0.0000000000000000   -0.0003958436980379
  -0.0003958695793845    6.0544514397244962   -0.0003958436980379
   0.0000000000000000    0.0000000000000000    6.0544514656066895
Sn Ti Co
4 4 8
direct
   0.0000000000000000    0.0000000000000000    0.0000000000000000 Sn
   0.0000000000000000    0.5000000000000000    0.5000000000000000 Sn
   0.5000000000000000    0.0000000000000000    0.5000000000000000 Sn
   0.5000000000000000    0.5000000000000000    0.0000000000000000 Sn
   0.5000000000000000    0.0000000000000000    0.0000000000000000 Ti
   0.0000000000000000    0.5000000000000000    0.0000000000000000 Ti
   0.0000000000000000    0.0000000000000000    0.5000000000000000 Ti
   0.5000000000000000    0.5000000000000000    0.5000000000000000 Ti
   0.2500000000000000    0.2500000000000000    0.2500000000000000 Co
   0.7500000000000000    0.7500000000000000    0.2500000000000000 Co
   0.7500000000000000    0.2500000000000000    0.7500000000000000 Co
   0.2500000000000000    0.7500000000000000    0.7500000000000000 Co
   0.2500000000000000    0.2500000000000000    0.7500000000000000 Co
   0.7500000000000000    0.7500000000000000    0.7500000000000000 Co
   0.2500000000000000    0.7500000000000000    0.2500000000000000 Co
   0.7500000000000000    0.2500000000000000    0.2500000000000000 Co
