Cd4 Pd8
1.0
   5.9496497980747591    0.0000000000000000   -0.0003889917024710
  -0.0003890171358153    5.9496497853568400   -0.0003889917024710
   0.0000000000000000    0.0000000000000000    5.9496498107910156
Cd Pd
4 8
direct
   0.0000000000000000    0.0000000000000000    0.0000000000000000 Cd
   0.0000000000000000    0.5000000000000000    0.5000000000000000 Cd
   0.5000000000000000    0.0000000000000000    0.5000000000000000 Cd
   0.5000000000000000    0.5000000000000000    0.0000000000000000 Cd
   0.2500000000000000    0.2500000000000000    0.2500000000000000 Pd
   0.7500000000000000    0.7500000000000000    0.2500000000000000 Pd
   0.7500000000000000    0.2500000000000000    0.7500000000000000 Pd
   0.2500000000000000    0.7500000000000000    0.7500000000000000 Pd
   0.2500000000000000    0.2500000000000000    0.7500000000000000 Pd
   0.7500000000000000    0.7500000000000000    0.7500000000000000 Pd
   0.2500000000000000    0.7500000000000000    0.2500000000000000 Pd
   0.7500000000000000    0.2500000000000000    0.2500000000000000 Pd
