K2 Li4 S2 Cl2
1.0
   6.9583492130331122    0.0000000000000000   -0.0004549410803374
  -0.0003607511529468    5.5173482659036175   -0.0003607275675892
   0.0000000000000000    0.0000000000000000    5.4256486892700195
S Cl K Li
2 2 2 4
direct
   0.0000000000000000    0.5220336914062500    0.5490722656250000 S
   0.5000000000000000    0.4779663085937500    0.0490722656250000 S
   0.5000000000000000    0.9276428222656250    0.6099853515625000 Cl
   0.0000000000000000    0.0723571777343750    0.1099853515625000 Cl
   0.0000000000000000    0.9927368164062500    0.6257324218750000 K
   0.5000000000000000    0.0072631835937500    0.1257324218750000 K
   0.6891021728515625    0.5630493164062500    0.7185058593750000 Li
   0.8108978271484375    0.4369506835937500    0.2185058593750000 Li
   0.1891021728515625    0.4369506835937500    0.2185058593750000 Li
   0.3108978271484375    0.5630493164062500    0.7185058593750000 Li
