Mn4 O4 F8
1.0
   6.7181314587633985    0.0000000000000000   -2.1377320182193693
  -0.0004019702484159    4.4955501280601435   -0.0002939217877016
   0.0000000000000000    0.0000000000000000    6.8535509109497070
O F Mn
4 8 4
direct
   0.2663574218750000    0.7433471679687500    0.4927978515625000 O
   0.7336425781250000    0.2433471679687500    0.0072021484375000 O
   0.7336425781250000    0.2566528320312500    0.5072021484375000 O
   0.2663574218750000    0.7566528320312500    0.9927978515625000 O
   0.9612579345703125    0.6989898681640625    0.1791992187500000 F
   0.0387420654296875    0.1989898681640625    0.3208007812500000 F
   0.0387420654296875    0.3010101318359375    0.8208007812500000 F
   0.9612579345703125    0.8010101318359375    0.6791992187500000 F
   0.4097290039062500    0.3284912109375000    0.7488784790039062 F
   0.5902709960937500    0.8284912109375000    0.7511215209960938 F
   0.5902709960937500    0.6715087890625000    0.2511215209960938 F
   0.4097290039062500    0.1715087890625000    0.2488784790039062 F
   0.2415618896484375    0.6560668945312500    0.7298583984375000 Mn
   0.7584381103515625    0.1560668945312500    0.7701416015625000 Mn
   0.7584381103515625    0.3439331054687500    0.2701416015625000 Mn
   0.2415618896484375    0.8439331054687500    0.2298583984375000 Mn
