Yb2 Mg2
1.0
   4.4431495571539950    0.0000000000000000   -0.0002904958055060
  -0.0002845190316099    4.3514499478286384   -0.0002845004301915
   0.0000000000000000    0.0000000000000000    6.8928499221801758
Yb Mg
2 2
direct
   0.2500000000000000    0.2500000000000000    0.6369342803955078 Yb
   0.7500000000000000    0.7500000000000000    0.3630657196044922 Yb
   0.2500000000000000    0.7500000000000000    0.0007934570312500 Mg
   0.7500000000000000    0.2500000000000000    0.9992065429687500 Mg
