Al8 Co8
1.0
   5.9627513758055457    0.0000000000000000   -0.0003898482915476
  -0.0003898737808980    5.9627513630596205   -0.0003898482915476
   0.0000000000000000    0.0000000000000000    5.9627513885498047
Al Co
8 8
direct
   0.0000000000000000    0.0000000000000000    0.0000000000000000 Al
   0.0000000000000000    0.5000000000000000    0.5000000000000000 Al
   0.5000000000000000    0.0000000000000000    0.5000000000000000 Al
   0.5000000000000000    0.5000000000000000    0.0000000000000000 Al
   0.5000000000000000    0.0000000000000000    0.0000000000000000 Al
   0.0000000000000000    0.5000000000000000    0.0000000000000000 Al
   0.0000000000000000    0.0000000000000000    0.5000000000000000 Al
   0.5000000000000000    0.5000000000000000    0.5000000000000000 Al
   0.2500000000000000    0.2500000000000000    0.2500000000000000 Co
   0.7500000000000000    0.7500000000000000    0.2500000000000000 Co
   0.7500000000000000    0.2500000000000000    0.7500000000000000 Co
   0.2500000000000000    0.7500000000000000    0.7500000000000000 Co
   0.2500000000000000    0.2500000000000000    0.7500000000000000 Co
   0.7500000000000000    0.7500000000000000    0.7500000000000000 Co
   0.2500000000000000    0.7500000000000000    0.2500000000000000 Co
   0.7500000000000000    0.2500000000000000    0.2500000000000000 Co
