K2 Na2 Zr4 Sc2 Cu4 O16
1.0
   6.6875977444089143    0.0000000000000000   -3.8267298277493893
  -0.0009114915961676    8.0849522857706422   -0.0005285990740233
   0.0000000000000000    0.0000000000000000    7.3120489120483398
Na Sc K Cu O Zr O
2 2 2 4 8 4 8
direct
   0.5000000000000000    0.0000000000000000    0.0000000000000000 Na
   0.0000000000000000    0.5000000000000000    0.0000000000000000 Na
   0.0000000000000000    0.0000000000000000    0.5000000000000000 Sc
   0.5000000000000000    0.5000000000000000    0.5000000000000000 Sc
   0.5000000000000000    0.0000000000000000    0.5000000000000000 K
   0.0000000000000000    0.5000000000000000    0.5000000000000000 K
   0.2500000000000000    0.2500000000000000    0.0000000000000000 Cu
   0.7500000000000000    0.2500000000000000    0.0000000000000000 Cu
   0.7500000000000000    0.7500000000000000    0.0000000000000000 Cu
   0.2500000000000000    0.7500000000000000    0.0000000000000000 Cu
   0.7674255371093750    0.0000000000000000    0.9264221191406250 O
   0.2325744628906250    0.0000000000000000    0.0735778808593750 O
   0.2674255371093750    0.5000000000000000    0.9264221191406250 O
   0.7325744628906250    0.5000000000000000    0.0735778808593750 O
   0.7301483154296875    0.0000000000000000    0.4079589843750000 O
   0.2698516845703125    0.0000000000000000    0.5920410156250000 O
   0.2301483154296875    0.5000000000000000    0.4079589843750000 O
   0.7698516845703125    0.5000000000000000    0.5920410156250000 O
   0.1171264648437500    0.0000000000000000    0.2423095703125000 Zr
   0.8828735351562500    0.0000000000000000    0.7576904296875000 Zr
   0.6171264648437500    0.5000000000000000    0.2423095703125000 Zr
   0.3828735351562500    0.5000000000000000    0.7576904296875000 Zr
   0.0416564941406250    0.8157958984375000    0.7362060546875000 O
   0.9583435058593750    0.8157958984375000    0.2637939453125000 O
   0.9583435058593750    0.1842041015625000    0.2637939453125000 O
   0.0416564941406250    0.1842041015625000    0.7362060546875000 O
   0.5416564941406250    0.3157958984375000    0.7362060546875000 O
   0.4583435058593750    0.3157958984375000    0.2637939453125000 O
   0.4583435058593750    0.6842041015625000    0.2637939453125000 O
   0.5416564941406250    0.6842041015625000    0.7362060546875000 O
