Y6 Ni7
1.0
   5.2559939602037780    0.0000000000000000    0.3621198763078607
  -0.0081981237305256    5.2661926832014165    0.1541127142028710
   0.0000000000000000    0.0000000000000000   10.9145498275756836
Ni Y
7 6
direct
   0.9506835937500000    0.8096923828125000    0.5336303710937500 Ni
   0.7246093750000000    0.4962768554687500    0.6754150390625000 Ni
   0.6352539062500000    0.1203613281250000    0.3951416015625000 Ni
   0.5981445312500000    0.0869140625000000    0.1641845703125000 Ni
   0.5771484375000000    0.6426086425781250    0.8835105895996094 Ni
   0.2490234375000000    0.7797241210937500    0.0663452148437500 Ni
   0.6704101562500000    0.0738830566406250    0.9174804687500000 Ni
   0.0845947265625000    0.8137207031250000    0.8058776855468750 Y
   0.0758056640625000    0.0079040527343750    0.2816162109375000 Y
   0.7221679687500000    0.5982666015625000    0.1354675292968750 Y
   0.3680419921875000    0.5333251953125000    0.4416503906250000 Y
   0.2219238281250000    0.2739868164062500    0.9869384765625000 Y
   0.5148925781250000    0.0159606933593750    0.6347656250000000 Y
