Dy4 Pd4
1.0
   7.0369500963490035    0.0000000000000000   -0.0004600800536307
  -0.0002759537031884    4.2204513369384493   -0.0002759356617581
   0.0000000000000000    0.0000000000000000    5.7662506103515625
Pd Dy
4 4
direct
   0.4585189819335938    0.2500000000000000    0.6543579101562500 Pd
   0.0414810180664062    0.7500000000000000    0.1543579101562500 Pd
   0.5414810180664062    0.7500000000000000    0.3456420898437500 Pd
   0.9585189819335938    0.2500000000000000    0.8456420898437500 Pd
   0.8203735351562500    0.2500000000000000    0.3510742187500000 Dy
   0.6796264648437500    0.7500000000000000    0.8510742187500000 Dy
   0.1796264648437500    0.7500000000000000    0.6489257812500000 Dy
   0.3203735351562500    0.2500000000000000    0.1489257812500000 Dy
