Re2 Cu2 O8
1.0
   4.0842829290719775    0.0000000000000000   -3.2020555287268038
  -0.0007130242344067    5.3077525500160627   -0.0003470240752697
   0.0000000000000000    0.0000000000000000    8.1111488342285156
Re Cu O
2 2 8
direct
   0.0000000000000000    0.0000000000000000    0.0000000000000000 Re
   0.0000000000000000    0.5000000000000000    0.5000000000000000 Re
   0.5000000000000000    0.0000000000000000    0.5000000000000000 Cu
   0.5000000000000000    0.5000000000000000    0.0000000000000000 Cu
   0.0463867187500000    0.8038940429687500    0.4011840820312500 O
   0.9536132812500000    0.3038940429687500    0.0988159179687500 O
   0.9536132812500000    0.1961059570312500    0.5988159179687500 O
   0.0463867187500000    0.6961059570312500    0.9011840820312500 O
   0.4319305419921875    0.5350112915039062    0.7435607910156250 O
   0.5680694580078125    0.0350112915039062    0.7564392089843750 O
   0.5680694580078125    0.4649887084960938    0.2564392089843750 O
   0.4319305419921875    0.9649887084960938    0.2435607910156250 O
