Ba8 Nb4 Fe4 O24
1.0
   8.2683515371985603    0.0000000000000000   -0.0005405898246522
  -0.0005406251698975    8.2683515195242041   -0.0005405898246522
   0.0000000000000000    0.0000000000000000    8.2683515548706055
Nb Fe Ba O
4 4 8 24
direct
   0.0000000000000000    0.0000000000000000    0.0000000000000000 Nb
   0.0000000000000000    0.5000000000000000    0.5000000000000000 Nb
   0.5000000000000000    0.0000000000000000    0.5000000000000000 Nb
   0.5000000000000000    0.5000000000000000    0.0000000000000000 Nb
   0.5000000000000000    0.0000000000000000    0.0000000000000000 Fe
   0.0000000000000000    0.5000000000000000    0.0000000000000000 Fe
   0.0000000000000000    0.0000000000000000    0.5000000000000000 Fe
   0.5000000000000000    0.5000000000000000    0.5000000000000000 Fe
   0.2500000000000000    0.2500000000000000    0.2500000000000000 Ba
   0.7500000000000000    0.7500000000000000    0.2500000000000000 Ba
   0.7500000000000000    0.2500000000000000    0.7500000000000000 Ba
   0.2500000000000000    0.7500000000000000    0.7500000000000000 Ba
   0.2500000000000000    0.2500000000000000    0.7500000000000000 Ba
   0.7500000000000000    0.7500000000000000    0.7500000000000000 Ba
   0.2500000000000000    0.7500000000000000    0.2500000000000000 Ba
   0.7500000000000000    0.2500000000000000    0.2500000000000000 Ba
   0.7576293945312500    0.0000000000000000    0.0000000000000000 O
   0.2423706054687500    0.0000000000000000    0.0000000000000000 O
   0.0000000000000000    0.7576293945312500    0.0000000000000000 O
   0.0000000000000000    0.2423706054687500    0.0000000000000000 O
   0.0000000000000000    0.0000000000000000    0.7576293945312500 O
   0.0000000000000000    0.0000000000000000    0.2423706054687500 O
   0.7576293945312500    0.5000000000000000    0.5000000000000000 O
   0.2423706054687500    0.5000000000000000    0.5000000000000000 O
   0.0000000000000000    0.2576293945312500    0.5000000000000000 O
   0.0000000000000000    0.7423706054687500    0.5000000000000000 O
   0.0000000000000000    0.5000000000000000    0.2576293945312500 O
   0.0000000000000000    0.5000000000000000    0.7423706054687500 O
   0.2576293945312500    0.0000000000000000    0.5000000000000000 O
   0.7423706054687500    0.0000000000000000    0.5000000000000000 O
   0.5000000000000000    0.7576293945312500    0.5000000000000000 O
   0.5000000000000000    0.2423706054687500    0.5000000000000000 O
   0.5000000000000000    0.0000000000000000    0.2576293945312500 O
   0.5000000000000000    0.0000000000000000    0.7423706054687500 O
   0.2576293945312500    0.5000000000000000    0.0000000000000000 O
   0.7423706054687500    0.5000000000000000    0.0000000000000000 O
   0.5000000000000000    0.2576293945312500    0.0000000000000000 O
   0.5000000000000000    0.7423706054687500    0.0000000000000000 O
   0.5000000000000000    0.5000000000000000    0.7576293945312500 O
   0.5000000000000000    0.5000000000000000    0.2423706054687500 O
