Na2 Pd1 Pb1 Cl8
1.0
   5.5865386439190026    0.0000000000000000    1.9294643178524000
   1.0539913052923500    7.5201596432029243    2.8133134237654831
   0.0000000000000000    0.0000000000000000    9.3949508666992188
Pd Pb Na Cl
1 1 2 8
direct
   0.0000000000000000    0.0000000000000000    0.0000000000000000 Pd
   0.5000000000000000    0.0000000000000000    0.5000000000000000 Pb
   0.0440521240234375    0.3701782226562500    0.2344360351562500 Na
   0.9559478759765625    0.6298217773437500    0.7655639648437500 Na
   0.9373703002929688    0.8257446289062500    0.4336547851562500 Cl
   0.0626296997070312    0.1742553710937500    0.5663452148437500 Cl
   0.2972412109375000    0.1667480468750000    0.0577545166015625 Cl
   0.7027587890625000    0.8332519531250000    0.9422454833984375 Cl
   0.8359985351562500    0.2906494140625000    0.9333496093750000 Cl
   0.1640014648437500    0.7093505859375000    0.0666503906250000 Cl
   0.5426025390625000    0.3420009613037109    0.3415184020996094 Cl
   0.4573974609375000    0.6579990386962891    0.6584815979003906 Cl
