Eu4 P4 Se4
1.0
   6.0359208639632813    0.0000000000000000   -3.0769477081406302
  -0.0006796514217751    6.3688487507824778   -0.0004163991859244
   0.0000000000000000    0.0000000000000000    7.6788473129272461
P Se Eu
4 4 4
direct
   0.4065551757812500    0.0298156738281250    0.0901489257812500 P
   0.5934448242187500    0.5298156738281250    0.4098510742187500 P
   0.5934448242187500    0.9701843261718750    0.9098510742187500 P
   0.4065551757812500    0.4701843261718750    0.5901489257812500 P
   0.8464660644531250    0.7471923828125000    0.9222412109375000 Se
   0.1535339355468750    0.2471923828125000    0.5777587890625000 Se
   0.1535339355468750    0.2528076171875000    0.0777587890625000 Se
   0.8464660644531250    0.7528076171875000    0.4222412109375000 Se
   0.7753753662109375    0.1248779296875000    0.6525878906250000 Eu
   0.2246246337890625    0.6248779296875000    0.8474121093750000 Eu
   0.2246246337890625    0.8751220703125000    0.3474121093750000 Eu
   0.7753753662109375    0.3751220703125000    0.1525878906250000 Eu
