Al6 C2
1.0
   3.5916485709673260    0.0000000000000000   -0.0002348241559949
  -1.7956205267915890    3.1105765351613410   -0.0002348241559949
   0.0000000000000000    0.0000000000000000   12.7616481781005859
C Al
2 6
direct
   0.0000000000000000    0.0000000000000000    0.0000000000000000 C
   0.0000000000000000    0.0000000000000000    0.5000000000000000 C
   0.6666666865348816    0.3333333432674408    0.2500000000000000 Al
   0.3333333134651184    0.6666666269302368    0.7500000000000000 Al
   0.3333333432674408    0.6666666865348816    0.4233398437500000 Al
   0.6666666269302368    0.3333333134651184    0.9233398437500000 Al
   0.6666666865348816    0.3333333432674408    0.5766601562500000 Al
   0.3333333134651184    0.6666666269302368    0.0766601562500000 Al
