Tm2 Au4
1.0
   3.8929517185930007    0.0000000000000000   -0.0002545235380312
  -0.0002545401794782    3.8929517102714613   -0.0002545235380312
   0.0000000000000000    0.0000000000000000    9.0674514770507812
Tm Au
2 4
direct
   0.0000000000000000    0.0000000000000000    0.0000000000000000 Tm
   0.5000000000000000    0.5000000000000000    0.5000000000000000 Tm
   0.0000000000000000    0.0000000000000000    0.3385620117187500 Au
   0.0000000000000000    0.0000000000000000    0.6614379882812500 Au
   0.5000000000000000    0.5000000000000000    0.8385620117187500 Au
   0.5000000000000000    0.5000000000000000    0.1614379882812500 Au
