Cs4 C4 N16
1.0
   6.2375379177062706    0.0000000000000000   -0.0624632457435883
  -0.0010079967743158   15.2637490567128857   -0.0009979531478523
   0.0000000000000000    0.0000000000000000    6.3688488006591797
C N Cs N
4 8 4 8
direct
   0.5000000000000000    0.2429199218750000    0.5000000000000000 C
   0.5000000000000000    0.7570800781250000    0.5000000000000000 C
   0.0000000000000000    0.7429199218750000    0.5000000000000000 C
   0.0000000000000000    0.2570800781250000    0.5000000000000000 C
   0.7351531982421875    0.0000000000000000    0.3046646118164062 N
   0.2648468017578125    0.0000000000000000    0.6953353881835938 N
   0.2351531982421875    0.5000000000000000    0.3046646118164062 N
   0.7648468017578125    0.5000000000000000    0.6953353881835938 N
   0.0925292968750000    0.0000000000000000    0.5718994140625000 N
   0.9074707031250000    0.0000000000000000    0.4281005859375000 N
   0.5925292968750000    0.5000000000000000    0.5718994140625000 N
   0.4074707031250000    0.5000000000000000    0.4281005859375000 N
   0.2756805419921875    0.0000000000000000    0.1725769042968750 Cs
   0.7243194580078125    0.0000000000000000    0.8274230957031250 Cs
   0.7756805419921875    0.5000000000000000    0.1725769042968750 Cs
   0.2243194580078125    0.5000000000000000    0.8274230957031250 Cs
   0.4671020507812500    0.7513427734375000    0.3120117187500000 N
   0.5328979492187500    0.7513427734375000    0.6879882812500000 N
   0.5328979492187500    0.2486572265625000    0.6879882812500000 N
   0.4671020507812500    0.2486572265625000    0.3120117187500000 N
   0.9671020507812500    0.2513427734375000    0.3120117187500000 N
   0.0328979492187500    0.2513427734375000    0.6879882812500000 N
   0.0328979492187500    0.7486572265625000    0.6879882812500000 N
   0.9671020507812500    0.7486572265625000    0.3120117187500000 N
