V4 F12
1.0
   8.7572334646918755    0.0000000000000000   -3.7821101374899353
  -0.0004900966299782    4.9278516420374245   -0.0003221859225834
   0.0000000000000000    0.0000000000000000    7.1024494171142578
V F
4 12
direct
   0.2500000000000000    0.2500000000000000    0.0000000000000000 V
   0.7500000000000000    0.2500000000000000    0.5000000000000000 V
   0.7500000000000000    0.7500000000000000    0.0000000000000000 V
   0.2500000000000000    0.7500000000000000    0.5000000000000000 V
   0.5000000000000000    0.3276672363281250    0.2500000000000000 F
   0.5000000000000000    0.6723327636718750    0.7500000000000000 F
   0.0000000000000000    0.8276672363281250    0.2500000000000000 F
   0.0000000000000000    0.1723327636718750    0.7500000000000000 F
   0.2018737792968750    0.5670776367187500    0.7354922294616699 F
   0.7981262207031250    0.5670776367187500    0.7645077705383301 F
   0.7981262207031250    0.4329223632812500    0.2645077705383301 F
   0.2018737792968750    0.4329223632812500    0.2354922294616699 F
   0.7018737792968750    0.0670776367187500    0.7354922294616699 F
   0.2981262207031250    0.0670776367187500    0.7645077705383301 F
   0.2981262207031250    0.9329223632812500    0.2645077705383301 F
   0.7018737792968750    0.9329223632812500    0.2354922294616699 F
