Al4 Fe4 Cu8 Ni4
1.0
   5.5959529757106026    0.0000000000000000   -0.0003658667902897
  -0.0003761688937596    5.7531480543243063   -0.0003761443004136
   0.0000000000000000    0.0000000000000000    8.2159509658813477
Ni Al Fe Cu
4 4 4 8
direct
   0.0000000000000000    0.0000000000000000    0.0000000000000000 Ni
   0.0000000000000000    0.5000000000000000    0.0000000000000000 Ni
   0.5000000000000000    0.5000000000000000    0.5000000000000000 Ni
   0.5000000000000000    0.0000000000000000    0.5000000000000000 Ni
   0.2500000000000000    0.2500000000000000    0.7500000000000000 Al
   0.7500000000000000    0.2500000000000000    0.7500000000000000 Al
   0.7500000000000000    0.7500000000000000    0.2500000000000000 Al
   0.2500000000000000    0.7500000000000000    0.2500000000000000 Al
   0.0000000000000000    0.2500000000000000    0.5240783691406250 Fe
   0.0000000000000000    0.7500000000000000    0.4759216308593750 Fe
   0.5000000000000000    0.7500000000000000    0.0240783691406250 Fe
   0.5000000000000000    0.2500000000000000    0.9759216308593750 Fe
   0.0000000000000000    0.0528564453125000    0.2857360839843750 Cu
   0.0000000000000000    0.4471435546875000    0.2857360839843750 Cu
   0.0000000000000000    0.5528564453125000    0.7142639160156250 Cu
   0.0000000000000000    0.9471435546875000    0.7142639160156250 Cu
   0.5000000000000000    0.5528564453125000    0.7857360839843750 Cu
   0.5000000000000000    0.9471435546875000    0.7857360839843750 Cu
   0.5000000000000000    0.0528564453125000    0.2142639160156250 Cu
   0.5000000000000000    0.4471435546875000    0.2142639160156250 Cu
