Yb8 Cd4 Sn4
1.0
   7.5347471076141579    0.0000000000000000   -0.0004926263233220
  -0.0004926585325820    7.5347470915079491   -0.0004926263233220
   0.0000000000000000    0.0000000000000000    7.5347471237182617
Sn Cd Yb
4 4 8
direct
   0.0000000000000000    0.0000000000000000    0.0000000000000000 Sn
   0.0000000000000000    0.5000000000000000    0.5000000000000000 Sn
   0.5000000000000000    0.0000000000000000    0.5000000000000000 Sn
   0.5000000000000000    0.5000000000000000    0.0000000000000000 Sn
   0.5000000000000000    0.0000000000000000    0.0000000000000000 Cd
   0.0000000000000000    0.5000000000000000    0.0000000000000000 Cd
   0.0000000000000000    0.0000000000000000    0.5000000000000000 Cd
   0.5000000000000000    0.5000000000000000    0.5000000000000000 Cd
   0.2500000000000000    0.2500000000000000    0.2500000000000000 Yb
   0.7500000000000000    0.7500000000000000    0.2500000000000000 Yb
   0.7500000000000000    0.2500000000000000    0.7500000000000000 Yb
   0.2500000000000000    0.7500000000000000    0.7500000000000000 Yb
   0.2500000000000000    0.2500000000000000    0.7500000000000000 Yb
   0.7500000000000000    0.7500000000000000    0.7500000000000000 Yb
   0.2500000000000000    0.7500000000000000    0.2500000000000000 Yb
   0.7500000000000000    0.2500000000000000    0.2500000000000000 Yb
