Ca3 Mg3
1.0
   4.0894532116269948    0.0000000000000000   -0.0002673709245006
  -2.0444946060448022    3.5417043038542975   -0.0002673709245006
   0.0000000000000000    0.0000000000000000    7.0500488281250000
Mg Ca
3 3
direct
   0.6507568359375000    0.6507568359375000    0.0000000000000000 Mg
   0.3492431640625000    0.0000000000000000    0.6666666865348816 Mg
   0.0000000000000000    0.3492431640625000    0.3333333432674408 Mg
   0.2652168273925781    0.0000000000000000    0.1666666716337204 Ca
   0.0000000000000000    0.2652168273925781    0.8333333730697632 Ca
   0.7347831726074219    0.7347831726074219    0.5000000000000000 Ca
