Tb4 Ce4 Pt8
1.0
   8.6744489484399789    0.0000000000000000   -0.0005671407190290
  -0.0002836625735948    4.3383512311487928   -0.0002836440281704
   0.0000000000000000    0.0000000000000000    8.7137508392333984
Ce Tb Pt
4 4 8
direct
   0.0000000000000000    0.0000000000000000    0.5045385360717773 Ce
   0.0000000000000000    0.5000000000000000    0.0045385360717773 Ce
   0.5000000000000000    0.0000000000000000    0.0045385360717773 Ce
   0.5000000000000000    0.5000000000000000    0.5045385360717773 Ce
   0.0000000000000000    0.0000000000000000    0.9150848388671875 Tb
   0.0000000000000000    0.5000000000000000    0.4150848388671875 Tb
   0.5000000000000000    0.0000000000000000    0.4150848388671875 Tb
   0.5000000000000000    0.5000000000000000    0.9150848388671875 Tb
   0.0000000000000000    0.0000000000000000    0.1698913574218750 Pt
   0.0000000000000000    0.5000000000000000    0.6698913574218750 Pt
   0.5000000000000000    0.0000000000000000    0.6698913574218750 Pt
   0.5000000000000000    0.5000000000000000    0.1698913574218750 Pt
   0.0000000000000000    0.0000000000000000    0.7904815673828125 Pt
   0.0000000000000000    0.5000000000000000    0.2904815673828125 Pt
   0.5000000000000000    0.0000000000000000    0.2904815673828125 Pt
   0.5000000000000000    0.5000000000000000    0.7904815673828125 Pt
