Yb4 Tm4 Mg8
1.0
   7.4561495621583660    0.0000000000000000   -0.0004874875682600
  -0.0004875194415342    7.4561495462201659   -0.0004874875682600
   0.0000000000000000    0.0000000000000000    7.4561495780944824
Yb Tm Mg
4 4 8
direct
   0.0000000000000000    0.0000000000000000    0.0000000000000000 Yb
   0.0000000000000000    0.5000000000000000    0.5000000000000000 Yb
   0.5000000000000000    0.0000000000000000    0.5000000000000000 Yb
   0.5000000000000000    0.5000000000000000    0.0000000000000000 Yb
   0.5000000000000000    0.0000000000000000    0.0000000000000000 Tm
   0.0000000000000000    0.5000000000000000    0.0000000000000000 Tm
   0.0000000000000000    0.0000000000000000    0.5000000000000000 Tm
   0.5000000000000000    0.5000000000000000    0.5000000000000000 Tm
   0.2500000000000000    0.2500000000000000    0.2500000000000000 Mg
   0.7500000000000000    0.7500000000000000    0.2500000000000000 Mg
   0.7500000000000000    0.2500000000000000    0.7500000000000000 Mg
   0.2500000000000000    0.7500000000000000    0.7500000000000000 Mg
   0.2500000000000000    0.2500000000000000    0.7500000000000000 Mg
   0.7500000000000000    0.7500000000000000    0.7500000000000000 Mg
   0.2500000000000000    0.7500000000000000    0.2500000000000000 Mg
   0.7500000000000000    0.2500000000000000    0.2500000000000000 Mg
