Li2 Hg2 P2
1.0
   4.1942510515214178    0.0000000000000000   -0.0002742226706604
  -2.0968875806801694    3.6324653277323633   -0.0002742226706604
   0.0000000000000000    0.0000000000000000    6.4998469352722168
Li P Hg
2 2 2
direct
   0.6666666865348816    0.3333333432674408    0.8339843750000000 Li
   0.3333333134651184    0.6666666269302368    0.3339843750000000 Li
   0.6666666865348816    0.3333333432674408    0.1702880859375000 P
   0.3333333134651184    0.6666666269302368    0.6702880859375000 P
   0.6666666865348816    0.3333333432674408    0.5117187500000000 Hg
   0.3333333134651184    0.6666666269302368    0.0117187500000000 Hg
