Ca2 Eu2 Ge8
1.0
   4.2859506515451535    0.0000000000000000   -0.0002802180459748
  -2.1427321784596374    3.7118825141528853   -0.0002802180459748
   0.0000000000000000    0.0000000000000000   21.5779457092285156
Eu Ca Ge
2 2 8
direct
   0.0000000000000000    0.0000000000000000    0.0000000000000000 Eu
   0.0000000000000000    0.0000000000000000    0.5000000000000000 Eu
   0.0000000000000000    0.0000000000000000    0.2500000000000000 Ca
   0.0000000000000000    0.0000000000000000    0.7500000000000000 Ca
   0.6666666865348816    0.3333333432674408    0.8510742187500000 Ge
   0.3333333134651184    0.6666666269302368    0.3510742187500000 Ge
   0.3333333432674408    0.6666666865348816    0.1489257812500000 Ge
   0.6666666269302368    0.3333333134651184    0.6489257812500000 Ge
   0.6666666865348816    0.3333333432674408    0.3995971679687500 Ge
   0.3333333134651184    0.6666666269302368    0.8995971679687500 Ge
   0.3333333432674408    0.6666666865348816    0.6004028320312500 Ge
   0.6666666269302368    0.3333333134651184    0.1004028320312500 Ge
