Li6 Cr9 Sn3 O24
1.0
   6.1199502814143871    0.0000000000000000   -0.0004001260510787
  -3.0596279483134334    5.3002328500626623   -0.0004001260510787
   0.0000000000000000    0.0000000000000000   14.9100484848022461
Sn Li O Cr O
3 6 6 9 18
direct
   0.3333333432674408    0.6666666865348816    0.1666666716337204 Sn
   0.6666666865348816    0.3333333432674408    0.8333333134651184 Sn
   0.0000000000000000    0.0000000000000000    0.5000000000000000 Sn
   0.0000000000000000    0.0000000000000000    0.8777465820312500 Li
   0.0000000000000000    0.0000000000000000    0.1222534179687500 Li
   0.6666666865348816    0.3333333432674408    0.2110799551010132 Li
   0.6666666865348816    0.3333333432674408    0.4555867910385132 Li
   0.3333333432674408    0.6666666865348816    0.5444133281707764 Li
   0.3333333432674408    0.6666666865348816    0.7889201045036316 Li
   0.0000000000000000    0.0000000000000000    0.7346191406250000 O
   0.0000000000000000    0.0000000000000000    0.2653808593750000 O
   0.6666666865348816    0.3333333432674408    0.0679525136947632 O
   0.6666666865348816    0.3333333432674408    0.5987142324447632 O
   0.3333333432674408    0.6666666865348816    0.4012858867645264 O
   0.3333333432674408    0.6666666865348816    0.9320475459098816 O
   0.5000000000000000    0.5000000000000000    0.0000000000000000 Cr
   0.5000000000000000    0.0000000000000000    0.0000000000000000 Cr
   0.0000000000000000    0.5000000000000000    0.0000000000000000 Cr
   0.1666667461395264    0.8333333730697632    0.3333333432674408 Cr
   0.1666666865348816    0.3333333432674408    0.3333333432674408 Cr
   0.6666666865348816    0.8333333730697632    0.3333333432674408 Cr
   0.8333333730697632    0.1666667461395264    0.6666666865348816 Cr
   0.8333333730697632    0.6666666865348816    0.6666666865348816 Cr
   0.3333333432674408    0.1666666865348816    0.6666666865348816 Cr
   0.8481183052062988    0.6962366104125977    0.4126434326171875 O
   0.3037633895874023    0.1518816947937012    0.4126434326171875 O
   0.8481183052062988    0.1518816947937012    0.4126434326171875 O
   0.6962366104125977    0.8481183052062988    0.5873565673828125 O
   0.1518816947937012    0.3037633895874023    0.5873565673828125 O
   0.1518816947937012    0.8481183052062988    0.5873565673828125 O
   0.5147850513458252    0.0295699834823608    0.7459768056869507 O
   0.9704300761222839    0.4852150380611420    0.7459768056869507 O
   0.5147849917411804    0.4852150678634644    0.7459768056869507 O
   0.3629033565521240    0.1814516782760620    0.9206899404525757 O
   0.8185483813285828    0.6370967626571655    0.9206899404525757 O
   0.8185483813285828    0.1814516484737396    0.9206899404525757 O
   0.1814516782760620    0.3629033565521240    0.0793101787567139 O
   0.6370967626571655    0.8185483813285828    0.0793101787567139 O
   0.1814516484737396    0.8185483813285828    0.0793101787567139 O
   0.0295699834823608    0.5147850513458252    0.2540232539176941 O
   0.4852150380611420    0.9704300761222839    0.2540232539176941 O
   0.4852150678634644    0.5147849917411804    0.2540232539176941 O
