Gd2 P4 Pd4
1.0
   3.9191484367529523    0.0000000000000000   -0.0002562362953097
  -0.0002562530487414    3.9191484283754150   -0.0002562362953097
   0.0000000000000000    0.0000000000000000    9.5652484893798828
Gd Pd P
2 4 4
direct
   0.0000000000000000    0.0000000000000000    0.0000000000000000 Gd
   0.5000000000000000    0.5000000000000000    0.5000000000000000 Gd
   0.0000000000000000    0.5000000000000000    0.2500000000000000 Pd
   0.5000000000000000    0.0000000000000000    0.2500000000000000 Pd
   0.0000000000000000    0.5000000000000000    0.7500000000000000 Pd
   0.5000000000000000    0.0000000000000000    0.7500000000000000 Pd
   0.5000000000000000    0.5000000000000000    0.8919677734375000 P
   0.5000000000000000    0.5000000000000000    0.1080322265625000 P
   0.0000000000000000    0.0000000000000000    0.3919677734375000 P
   0.0000000000000000    0.0000000000000000    0.6080322265625000 P
