Ti9 Al3 Ag6 S24
1.0
   7.9539503881207780    0.0000000000000000   -0.0005200340873585
  -3.9765239565587565    6.8885835989411479   -0.0005200340873585
   0.0000000000000000    0.0000000000000000   18.4994468688964844
Al S Ag Ti S
3 6 6 9 18
direct
   0.0000000000000000    0.0000000000000000    0.0000000000000000 Al
   0.6666666865348816    0.3333333432674408    0.3333333432674408 Al
   0.3333333432674408    0.6666666865348816    0.6666666865348816 Al
   0.0000000000000000    0.0000000000000000    0.2410278320312500 S
   0.0000000000000000    0.0000000000000000    0.7589721679687500 S
   0.6666666865348816    0.3333333432674408    0.5743612051010132 S
   0.6666666865348816    0.3333333432674408    0.0923055112361908 S
   0.3333333432674408    0.6666666865348816    0.9076945185661316 S
   0.3333333432674408    0.6666666865348816    0.4256388545036316 S
   0.3333333432674408    0.6666666865348816    0.2856140136718750 Ag
   0.6666666865348816    0.3333333432674408    0.7143859863281250 Ag
   0.0000000000000000    0.0000000000000000    0.6189473867416382 Ag
   0.3333333730697632    0.6666666865348816    0.0477193295955658 Ag
   0.6666666865348816    0.3333333730697632    0.9522807002067566 Ag
   0.0000000000000000    0.0000000000000000    0.3810526728630066 Ag
   0.3333333432674408    0.1666666716337204    0.1666666716337204 Ti
   0.8333333134651184    0.1666666716337204    0.1666666716337204 Ti
   0.8333333134651184    0.6666666269302368    0.1666666716337204 Ti
   0.1666666716337204    0.3333333432674408    0.8333333134651184 Ti
   0.1666666716337204    0.8333333134651184    0.8333333134651184 Ti
   0.6666666269302368    0.8333333134651184    0.8333333134651184 Ti
   0.0000000000000000    0.5000000000000000    0.5000000000000000 Ti
   0.5000000000000000    0.5000000000000000    0.5000000000000000 Ti
   0.5000000000000000    0.0000000000000000    0.5000000000000000 Ti
   0.4731597900390625    0.5268402099609375    0.7617187500000000 S
   0.4731597900390625    0.9463195800781250    0.7617187500000000 S
   0.0536804199218750    0.5268402099609375    0.7617187500000000 S
   0.5268402099609375    0.4731597900390625    0.2382812500000000 S
   0.9463195800781250    0.4731597900390625    0.2382812500000000 S
   0.5268402099609375    0.0536804199218750    0.2382812500000000 S
   0.1398265361785889    0.8601735830307007    0.0950521230697632 S
   0.1398264765739441    0.2796529233455658    0.0950521230697632 S
   0.7203471064567566    0.8601735830307007    0.0950521230697632 S
   0.1935069561004639    0.8064931631088257    0.5716146230697632 S
   0.6129862666130066    0.8064931631088257    0.5716146230697632 S
   0.1935068964958191    0.3870137631893158    0.5716146230697632 S
   0.8064931631088257    0.1935069561004639    0.4283854961395264 S
   0.8064931631088257    0.6129862666130066    0.4283854961395264 S
   0.3870137631893158    0.1935068964958191    0.4283854961395264 S
   0.8601735830307007    0.1398265361785889    0.9049479365348816 S
   0.2796529233455658    0.1398264765739441    0.9049479365348816 S
   0.8601735830307007    0.7203471064567566    0.9049479365348816 S
