La4 Bi4 O16
1.0
  11.0603097034381541    0.0000000000000000   -2.4745527921104515
  -0.0002610886936560    3.1986458126622646   -0.0002091293986441
   0.0000000000000000    0.0000000000000000   11.9363517761230469
La O Bi
4 16 4
direct
   0.0000000000000000    0.5130004882812500    0.2500000000000000 La
   0.0000000000000000    0.4869995117187500    0.7500000000000000 La
   0.0000000000000000    0.9977264404296875    0.2500000000000000 La
   0.0000000000000000    0.0022735595703125    0.7500000000000000 La
   0.6575012207031250    0.7571029663085938    0.3526000976562500 O
   0.3424987792968750    0.7571029663085938    0.1473999023437500 O
   0.3424987792968750    0.2428970336914062    0.6473999023437500 O
   0.6575012207031250    0.2428970336914062    0.8526000976562500 O
   0.6204681396484375    0.2402343750000000    0.5467529296875000 O
   0.3795318603515625    0.2402343750000000    0.9532470703125000 O
   0.3795318603515625    0.7597656250000000    0.4532470703125000 O
   0.6204681396484375    0.7597656250000000    0.0467529296875000 O
   0.1075439453125000    0.7606201171875000    0.3974266052246094 O
   0.8924560546875000    0.7606201171875000    0.1025733947753906 O
   0.8924560546875000    0.2393798828125000    0.6025733947753906 O
   0.1075439453125000    0.2393798828125000    0.8974266052246094 O
   0.8643531799316406    0.7407226562500000    0.8216552734375000 O
   0.1356468200683594    0.7407226562500000    0.6783447265625000 O
   0.1356468200683594    0.2592773437500000    0.1783447265625000 O
   0.8643531799316406    0.2592773437500000    0.3216552734375000 O
   0.7348327636718750    0.2427482604980469    0.4344482421875000 Bi
   0.2651672363281250    0.2427482604980469    0.0655517578125000 Bi
   0.2651672363281250    0.7572517395019531    0.5655517578125000 Bi
   0.7348327636718750    0.7572517395019531    0.9344482421875000 Bi
