Sr4 Fe2 O8
1.0
   3.8536491311678471    0.0000000000000000   -0.0002519539110930
  -0.0002519703845307    3.8536491229303205   -0.0002519539110930
   0.0000000000000000    0.0000000000000000   13.8096494674682617
Fe O Sr
2 8 4
direct
   0.0000000000000000    0.0000000000000000    0.0000000000000000 Fe
   0.5000000000000000    0.5000000000000000    0.5000000000000000 Fe
   0.0000000000000000    0.5000000000000000    0.0000000000000000 O
   0.5000000000000000    0.0000000000000000    0.0000000000000000 O
   0.5000000000000000    0.0000000000000000    0.5000000000000000 O
   0.0000000000000000    0.5000000000000000    0.5000000000000000 O
   0.5000000000000000    0.5000000000000000    0.6611328125000000 O
   0.5000000000000000    0.5000000000000000    0.3388671875000000 O
   0.0000000000000000    0.0000000000000000    0.1611328125000000 O
   0.0000000000000000    0.0000000000000000    0.8388671875000000 O
   0.0000000000000000    0.0000000000000000    0.3544616699218750 Sr
   0.0000000000000000    0.0000000000000000    0.6455383300781250 Sr
   0.5000000000000000    0.5000000000000000    0.8544616699218750 Sr
   0.5000000000000000    0.5000000000000000    0.1455383300781250 Sr
