Nd2 V4 Fe20
1.0
   4.6396508117694104    0.0000000000000000   -0.0003033431763875
  -0.0005568996181489    8.5172538393219881   -0.0005568632089051
   0.0000000000000000    0.0000000000000000    8.5172538757324219
Nd Fe V Fe
2 8 4 12
direct
   0.0000000000000000    0.0000000000000000    0.0000000000000000 Nd
   0.5000000000000000    0.5000000000000000    0.5000000000000000 Nd
   0.0000000000000000    0.6419067382812500    0.0000000000000000 Fe
   0.0000000000000000    0.3580932617187500    0.0000000000000000 Fe
   0.5000000000000000    0.1419067382812500    0.5000000000000000 Fe
   0.5000000000000000    0.8580932617187500    0.5000000000000000 Fe
   0.0000000000000000    0.2670297622680664    0.5000000000000000 Fe
   0.0000000000000000    0.7329702377319336    0.5000000000000000 Fe
   0.5000000000000000    0.7670297622680664    0.0000000000000000 Fe
   0.5000000000000000    0.2329702377319336    0.0000000000000000 Fe
   0.0000000000000000    0.0000000000000000    0.6390991210937500 V
   0.0000000000000000    0.0000000000000000    0.3609008789062500 V
   0.5000000000000000    0.5000000000000000    0.1390991210937500 V
   0.5000000000000000    0.5000000000000000    0.8609008789062500 V
   0.0000000000000000    0.5000000000000000    0.7334289550781250 Fe
   0.0000000000000000    0.5000000000000000    0.2665710449218750 Fe
   0.5000000000000000    0.0000000000000000    0.2334289550781250 Fe
   0.5000000000000000    0.0000000000000000    0.7665710449218750 Fe
   0.2500000000000000    0.2500000000000000    0.2500000000000000 Fe
   0.7500000000000000    0.7500000000000000    0.2500000000000000 Fe
   0.7500000000000000    0.2500000000000000    0.7500000000000000 Fe
   0.2500000000000000    0.7500000000000000    0.7500000000000000 Fe
   0.7500000000000000    0.7500000000000000    0.7500000000000000 Fe
   0.2500000000000000    0.2500000000000000    0.7500000000000000 Fe
   0.2500000000000000    0.7500000000000000    0.2500000000000000 Fe
   0.7500000000000000    0.2500000000000000    0.2500000000000000 Fe
