Na3 Pr3 O6
1.0
   3.4868469163756459    0.0000000000000000   -0.0002279721604279
  -1.7432256450240056    3.0198122075336062   -0.0002279721604279
   0.0000000000000000    0.0000000000000000   18.6042480468750000
Pr Na O
3 3 6
direct
   0.0000000000000000    0.0000000000000000    0.0000000000000000 Pr
   0.6666666865348816    0.3333333432674408    0.3333333432674408 Pr
   0.3333333432674408    0.6666666865348816    0.6666666865348816 Pr
   0.3333333432674408    0.6666666865348816    0.1666666716337204 Na
   0.6666666865348816    0.3333333432674408    0.8333333134651184 Na
   0.0000000000000000    0.0000000000000000    0.5000000000000000 Na
   0.3333333432674408    0.6666666865348816    0.4056091308593750 O
   0.6666666865348816    0.3333333432674408    0.5943908691406250 O
   0.0000000000000000    0.0000000000000000    0.7389425039291382 O
   0.3333333730697632    0.6666666865348816    0.9277242422103882 O
   0.6666666865348816    0.3333333730697632    0.0722758769989014 O
   0.0000000000000000    0.0000000000000000    0.2610575556755066 O
