Gd4 Si4 Ir4
1.0
   4.0370521459125763    0.0000000000000000   -0.0002639449111292
  -0.0002639621685713    4.0370521372830090   -0.0002639449111292
   0.0000000000000000    0.0000000000000000   14.4777517318725586
Si Gd Ir
4 4 4
direct
   0.0000000000000000    0.5000000000000000    0.6818237304687500 Si
   0.5000000000000000    0.0000000000000000    0.1818237304687500 Si
   0.5000000000000000    0.5000000000000000    0.9318237304687500 Si
   0.0000000000000000    0.0000000000000000    0.4318237304687500 Si
   0.5000000000000000    0.0000000000000000    0.7624359130859375 Gd
   0.0000000000000000    0.5000000000000000    0.2624359130859375 Gd
   0.0000000000000000    0.0000000000000000    0.0124359130859375 Gd
   0.5000000000000000    0.5000000000000000    0.5124359130859375 Gd
   0.5000000000000000    0.5000000000000000    0.0952148437500000 Ir
   0.0000000000000000    0.0000000000000000    0.5952148437500000 Ir
   0.5000000000000000    0.0000000000000000    0.3452148437500000 Ir
   0.0000000000000000    0.5000000000000000    0.8452148437500000 Ir
