Dy4 Fe16 As12
1.0
   6.8142485472949570    0.0000000000000000   -0.0004455196916515
  -0.0004455488209508    6.8142485327288789   -0.0004455196916515
   0.0000000000000000    0.0000000000000000   11.8708486557006836
As Dy As Fe
4 4 8 16
direct
   0.0000000000000000    0.0000000000000000    0.2500000000000000 As
   0.0000000000000000    0.0000000000000000    0.7500000000000000 As
   0.5000000000000000    0.5000000000000000    0.7500000000000000 As
   0.5000000000000000    0.5000000000000000    0.2500000000000000 As
   0.0000000000000000    0.0000000000000000    0.0000000000000000 Dy
   0.0000000000000000    0.0000000000000000    0.5000000000000000 Dy
   0.5000000000000000    0.5000000000000000    0.5000000000000000 Dy
   0.5000000000000000    0.5000000000000000    0.0000000000000000 Dy
   0.6272583007812500    0.8727416992187500    0.0000000000000000 As
   0.3727416992187500    0.1272583007812500    0.0000000000000000 As
   0.1272583007812500    0.6272583007812500    0.0000000000000000 As
   0.8727416992187500    0.3727416992187500    0.0000000000000000 As
   0.3727416992187500    0.8727416992187500    0.5000000000000000 As
   0.6272583007812500    0.1272583007812500    0.5000000000000000 As
   0.8727416992187500    0.6272583007812500    0.5000000000000000 As
   0.1272583007812500    0.3727416992187500    0.5000000000000000 As
   0.8471565246582031    0.6528396606445312    0.8374633789062500 Fe
   0.1528434753417969    0.3471603393554688    0.8374633789062500 Fe
   0.3471603393554688    0.8471565246582031    0.8374633789062500 Fe
   0.6528396606445312    0.1528434753417969    0.8374633789062500 Fe
   0.1528434753417969    0.6528396606445312    0.6625366210937500 Fe
   0.8471565246582031    0.3471603393554688    0.6625366210937500 Fe
   0.6528396606445312    0.8471565246582031    0.6625366210937500 Fe
   0.3471603393554688    0.1528434753417969    0.6625366210937500 Fe
   0.1528434753417969    0.3471603393554688    0.1625366210937500 Fe
   0.8471565246582031    0.6528396606445312    0.1625366210937500 Fe
   0.6528396606445312    0.1528434753417969    0.1625366210937500 Fe
   0.3471603393554688    0.8471565246582031    0.1625366210937500 Fe
   0.8471565246582031    0.3471603393554688    0.3374633789062500 Fe
   0.1528434753417969    0.6528396606445312    0.3374633789062500 Fe
   0.3471603393554688    0.1528434753417969    0.3374633789062500 Fe
   0.6528396606445312    0.8471565246582031    0.3374633789062500 Fe
