Ca4 Sb2 O11
1.0
   5.0124064711482266    0.0000000000000000    0.4509830652525233
   0.0211020387528484    5.3725635828079508    0.0833442867219299
   0.0000000000000000    0.0000000000000000    9.3163537979125977
O Ca Sb
11 4 2
direct
   0.9664306640625000    0.2457275390625000    0.5183715820312500 O
   0.8679199218750000    0.6335754394531250    0.2692871093750000 O
   0.4736328125000000    0.5335388183593750    0.4823684692382812 O
   0.9781494140625000    0.7648620605468750    0.6429443359375000 O
   0.4877929687500000    0.0624904632568359    0.6516113281250000 O
   0.9814453125000000    0.1320037841796875    0.2346801757812500 O
   0.9353027343750000    0.8262939453125000    0.9679565429687500 O
   0.5061035156250000    0.0743713378906250    0.3219299316406250 O
   0.2838134765625000    0.4334411621093750    0.8476562500000000 O
   0.4168701171875000    0.7338290214538574    0.1338500976562500 O
   0.6999511718750000    0.2402343750000000    0.0143432617187500 O
   0.5745849609375000    0.6601562500000000    0.6933593750000000 Ca
   0.0505676269531250    0.1174316406250000    0.7678222656250000 Ca
   0.1163940429687500    0.4470214843750000    0.0643310546875000 Ca
   0.1618499755859375    0.8298339843750000    0.4132690429687500 Ca
   0.7180175781250000    0.2949218750000000    0.4062500000000000 Sb
   0.7047119140625000    0.9357604980468750    0.1311035156250000 Sb
