Yb2 Co4 Si4
1.0
   3.8798496640250564    0.0000000000000000   -0.0002536669177787
  -0.0002536835032175    3.8798496557315238   -0.0002536669177787
   0.0000000000000000    0.0000000000000000    8.9233512878417969
Yb Co Si
2 4 4
direct
   0.0000000000000000    0.0000000000000000    0.0000000000000000 Yb
   0.5000000000000000    0.5000000000000000    0.5000000000000000 Yb
   0.0000000000000000    0.5000000000000000    0.2500000000000000 Co
   0.5000000000000000    0.0000000000000000    0.2500000000000000 Co
   0.0000000000000000    0.5000000000000000    0.7500000000000000 Co
   0.5000000000000000    0.0000000000000000    0.7500000000000000 Co
   0.0000000000000000    0.0000000000000000    0.3668403625488281 Si
   0.0000000000000000    0.0000000000000000    0.6331596374511719 Si
   0.5000000000000000    0.5000000000000000    0.8668403625488281 Si
   0.5000000000000000    0.5000000000000000    0.1331596374511719 Si
