Gd2 Se4
1.0
   4.2335538773651500    0.0000000000000000   -0.0002767923131865
  -0.0002768104106271    4.2335538683155427   -0.0002767923131865
   0.0000000000000000    0.0000000000000000    7.6002502441406250
Se Gd
4 2
direct
   0.7500000000000000    0.2500000000000000    0.0000000000000000 Se
   0.2500000000000000    0.7500000000000000    0.0000000000000000 Se
   0.7500000000000000    0.7500000000000000    0.6503906250000000 Se
   0.2500000000000000    0.2500000000000000    0.3496093750000000 Se
   0.2500000000000000    0.2500000000000000    0.7219429016113281 Gd
   0.7500000000000000    0.7500000000000000    0.2780570983886719 Gd
