Sm2 Gd2 Ni2 Ge14
1.0
   4.2335538773651500    0.0000000000000000   -0.0002767923131865
  -0.0002631054923107    4.0239500827430721   -0.0002630882908767
   0.0000000000000000    0.0000000000000000   26.8703498840332031
Ni Ge Sm Gd
2 14 2 2
direct
   0.0000000000000000    0.0000000000000000    0.3534240722656250 Ni
   0.0000000000000000    0.5000000000000000    0.8534240722656250 Ni
   0.0000000000000000    0.5000000000000000    0.2099609375000000 Ge
   0.0000000000000000    0.0000000000000000    0.7099609375000000 Ge
   0.0000000000000000    0.0000000000000000    0.0091400146484375 Ge
   0.0000000000000000    0.5000000000000000    0.5091400146484375 Ge
   0.0000000000000000    0.0000000000000000    0.9122314453125000 Ge
   0.0000000000000000    0.5000000000000000    0.4122314453125000 Ge
   0.0000000000000000    0.0000000000000000    0.2615356445312500 Ge
   0.0000000000000000    0.5000000000000000    0.7615356445312500 Ge
   0.5000000000000000    0.5000000000000000    0.9978027343750000 Ge
   0.5000000000000000    0.0000000000000000    0.4978027343750000 Ge
   0.5000000000000000    0.0000000000000000    0.4011077880859375 Ge
   0.5000000000000000    0.5000000000000000    0.9011077880859375 Ge
   0.5000000000000000    0.5000000000000000    0.0928649902343750 Ge
   0.5000000000000000    0.0000000000000000    0.5928649902343750 Ge
   0.5000000000000000    0.0000000000000000    0.8087882995605469 Sm
   0.5000000000000000    0.5000000000000000    0.3087882995605469 Sm
   0.5000000000000000    0.5000000000000000    0.6679687500000000 Gd
   0.5000000000000000    0.0000000000000000    0.1679687500000000 Gd
