Ca2 Zn8
1.0
   4.8230500118168829    0.0000000000000000   -0.0003153339270164
  -0.0003153545444134    4.8230500015071733   -0.0003153339270164
   0.0000000000000000    0.0000000000000000    9.6700496673583984
Ca Zn
2 8
direct
   0.0000000000000000    0.0000000000000000    0.0000000000000000 Ca
   0.5000000000000000    0.5000000000000000    0.5000000000000000 Ca
   0.0000000000000000    0.5000000000000000    0.2500000000000000 Zn
   0.5000000000000000    0.0000000000000000    0.2500000000000000 Zn
   0.0000000000000000    0.5000000000000000    0.7500000000000000 Zn
   0.5000000000000000    0.0000000000000000    0.7500000000000000 Zn
   0.5000000000000000    0.5000000000000000    0.8707656860351562 Zn
   0.5000000000000000    0.5000000000000000    0.1292343139648438 Zn
   0.0000000000000000    0.0000000000000000    0.3707656860351562 Zn
   0.0000000000000000    0.0000000000000000    0.6292343139648438 Zn
