Pm8 Ga4 Pd4
1.0
   7.2858486019815807    0.0000000000000000   -0.0004763531884763
  -0.0004763843337542    7.2858485864074147   -0.0004763531884763
   0.0000000000000000    0.0000000000000000    7.2858486175537109
Pd Ga Pm
4 4 8
direct
   0.0000000000000000    0.0000000000000000    0.0000000000000000 Pd
   0.0000000000000000    0.5000000000000000    0.5000000000000000 Pd
   0.5000000000000000    0.0000000000000000    0.5000000000000000 Pd
   0.5000000000000000    0.5000000000000000    0.0000000000000000 Pd
   0.5000000000000000    0.0000000000000000    0.0000000000000000 Ga
   0.0000000000000000    0.5000000000000000    0.0000000000000000 Ga
   0.0000000000000000    0.0000000000000000    0.5000000000000000 Ga
   0.5000000000000000    0.5000000000000000    0.5000000000000000 Ga
   0.2500000000000000    0.2500000000000000    0.2500000000000000 Pm
   0.7500000000000000    0.7500000000000000    0.2500000000000000 Pm
   0.7500000000000000    0.2500000000000000    0.7500000000000000 Pm
   0.2500000000000000    0.7500000000000000    0.7500000000000000 Pm
   0.2500000000000000    0.2500000000000000    0.7500000000000000 Pm
   0.7500000000000000    0.7500000000000000    0.7500000000000000 Pm
   0.2500000000000000    0.7500000000000000    0.2500000000000000 Pm
   0.7500000000000000    0.2500000000000000    0.2500000000000000 Pm
