Sr4 Ce4 B4 O12
1.0
   8.5958408109108468    0.0000000000000000   -5.8606638367879249
  -0.0007570840828003    6.1199502345858772   -0.0004001260510787
   0.0000000000000000    0.0000000000000000    6.0020503997802734
B O Sr Ce O
4 4 4 4 8
direct
   0.3090820312500000    0.0000000000000000    0.2750968933105469 B
   0.6909179687500000    0.0000000000000000    0.7249031066894531 B
   0.8090820312500000    0.5000000000000000    0.2750968933105469 B
   0.1909179687500000    0.5000000000000000    0.7249031066894531 B
   0.1447753906250000    0.0000000000000000    0.2762603759765625 O
   0.8552246093750000    0.0000000000000000    0.7237396240234375 O
   0.6447753906250000    0.5000000000000000    0.2762603759765625 O
   0.3552246093750000    0.5000000000000000    0.7237396240234375 O
   0.6610412597656250    0.0000000000000000    0.2795410156250000 Sr
   0.3389587402343750    0.0000000000000000    0.7204589843750000 Sr
   0.1610412597656250    0.5000000000000000    0.2795410156250000 Sr
   0.8389587402343750    0.5000000000000000    0.7204589843750000 Sr
   0.0965423583984375    0.0000000000000000    0.8571777343750000 Ce
   0.9034576416015625    0.0000000000000000    0.1428222656250000 Ce
   0.5965423583984375    0.5000000000000000    0.8571777343750000 Ce
   0.4034576416015625    0.5000000000000000    0.1428222656250000 Ce
   0.6482238769531250    0.2014770507812500    0.7332763671875000 O
   0.3517761230468750    0.2014770507812500    0.2667236328125000 O
   0.3517761230468750    0.7985229492187500    0.2667236328125000 O
   0.6482238769531250    0.7985229492187500    0.7332763671875000 O
   0.1482238769531250    0.7014770507812500    0.7332763671875000 O
   0.8517761230468750    0.7014770507812500    0.2667236328125000 O
   0.8517761230468750    0.2985229492187500    0.2667236328125000 O
   0.1482238769531250    0.2985229492187500    0.7332763671875000 O
