Sr4 Zn4 Ag4
1.0
   7.5618017877018060    0.0000000000000000   -6.8365067987797961
  -0.0006407468875966    4.3514499099555728   -0.0002845004301915
   0.0000000000000000    0.0000000000000000    7.2596483230590820
Zn Sr Ag
4 4 4
direct
   0.1441593170166016    0.0000000000000000    0.2107543945312500 Zn
   0.8558406829833984    0.0000000000000000    0.7892456054687500 Zn
   0.6441593170166016    0.5000000000000000    0.2107543945312500 Zn
   0.3558406829833984    0.5000000000000000    0.7892456054687500 Zn
   0.5620117187500000    0.0000000000000000    0.7919101715087891 Sr
   0.4379882812500000    0.0000000000000000    0.2080898284912109 Sr
   0.0620117187500000    0.5000000000000000    0.7919101715087891 Sr
   0.9379882812500000    0.5000000000000000    0.2080898284912109 Sr
   0.8170166015625000    0.0000000000000000    0.3997726440429688 Ag
   0.1829833984375000    0.0000000000000000    0.6002273559570312 Ag
   0.3170166015625000    0.5000000000000000    0.3997726440429688 Ag
   0.6829833984375000    0.5000000000000000    0.6002273559570312 Ag
