Li8 Re4 O8
1.0
   5.4125499609658725    0.0000000000000000   -0.0003538757902535
  -0.0003487596183297    5.3339490662481781   -0.0003487368169602
   0.0000000000000000    0.0000000000000000    5.8055491447448730
Re Li O
4 8 8
direct
   0.0000000000000000    0.5000000000000000    0.0000000000000000 Re
   0.5000000000000000    0.0000000000000000    0.5000000000000000 Re
   0.0000000000000000    0.5000000000000000    0.5000000000000000 Re
   0.5000000000000000    0.0000000000000000    0.0000000000000000 Re
   0.1297607421875000    0.0003662109375000    0.8399505615234375 Li
   0.3702392578125000    0.4996337890625000    0.3399505615234375 Li
   0.8702392578125000    0.0003662109375000    0.6600494384765625 Li
   0.6297607421875000    0.4996337890625000    0.1600494384765625 Li
   0.8702392578125000    0.9996337890625000    0.1600494384765625 Li
   0.6297607421875000    0.5003662109375000    0.6600494384765625 Li
   0.1297607421875000    0.9996337890625000    0.3399505615234375 Li
   0.3702392578125000    0.5003662109375000    0.8399505615234375 Li
   0.2648925781250000    0.2492065429687500    0.1015625000000000 O
   0.2351074218750000    0.2507934570312500    0.6015625000000000 O
   0.7351074218750000    0.2492065429687500    0.3984375000000000 O
   0.7648925781250000    0.2507934570312500    0.8984375000000000 O
   0.7351074218750000    0.7507934570312500    0.8984375000000000 O
   0.7648925781250000    0.7492065429687500    0.3984375000000000 O
   0.2648925781250000    0.7507934570312500    0.6015625000000000 O
   0.2351074218750000    0.7492065429687500    0.1015625000000000 O
