Ba2 In2 Hg2
1.0
   5.1636519321704526    0.0000000000000000   -0.0003376026865837
  -2.5815330256866220    4.4720228659854735   -0.0003376026865837
   0.0000000000000000    0.0000000000000000    8.7661485671997070
Ba In Hg
2 2 2
direct
   0.0000000000000000    0.0000000000000000    0.0000000000000000 Ba
   0.0000000000000000    0.0000000000000000    0.5000000000000000 Ba
   0.3333333432674408    0.6666666865348816    0.2500000000000000 In
   0.6666666269302368    0.3333333134651184    0.7500000000000000 In
   0.6666666865348816    0.3333333432674408    0.2500000000000000 Hg
   0.3333333134651184    0.6666666269302368    0.7500000000000000 Hg
