Nb6 Cl36
1.0
   6.8797478528800626    0.0000000000000000   -0.0004498020758682
  -3.4394836297847200    5.9582617330603025   -0.0004498020758682
   0.0000000000000000    0.0000000000000000   25.9402484893798828
Nb Cl
6 36
direct
   0.3333333432674408    0.6666666865348816    0.0969238281250000 Nb
   0.6666666269302368    0.3333333134651184    0.9030761718750000 Nb
   0.0000000000000000    0.0000000000000000    0.4302571713924408 Nb
   0.3333333432674408    0.6666666269302368    0.2364095151424408 Nb
   0.6666666865348816    0.3333333730697632    0.7635905146598816 Nb
   0.0000000000000000    0.0000000000000000    0.5697428584098816 Nb
   0.9940185546875000    0.7155609130859375    0.3852233886718750 Cl
   0.2844390869140625    0.2784576416015625    0.3852233886718750 Cl
   0.7215423583984375    0.0059814453125000    0.3852233886718750 Cl
   0.0059814453125000    0.2844390869140625    0.6147766113281250 Cl
   0.7155609130859375    0.7215423583984375    0.6147766113281250 Cl
   0.2784576416015625    0.9940185546875000    0.6147766113281250 Cl
   0.6606853008270264    0.0488942861557007    0.7185567617416382 Cl
   0.9511057734489441    0.6117910146713257    0.7185567617416382 Cl
   0.3882090449333191    0.3393148183822632    0.7185567617416382 Cl
   0.6726481318473816    0.6177724599838257    0.9481099843978882 Cl
   0.3822276592254639    0.0548757016658783    0.9481099843978882 Cl
   0.9451243281364441    0.3273519277572632    0.9481099843978882 Cl
   0.3273519277572632    0.3822276592254639    0.0518901348114014 Cl
   0.6177724599838257    0.9451243281364441    0.0518901348114014 Cl
   0.0548757016658783    0.6726481318473816    0.0518901348114014 Cl
   0.3393148183822632    0.9511057734489441    0.2814432978630066 Cl
   0.0488942861557007    0.3882090449333191    0.2814432978630066 Cl
   0.6117910146713257    0.6606853008270264    0.2814432978630066 Cl
   0.9516601562500000    0.6497077941894531    0.8699951171875000 Cl
   0.3502922058105469    0.3019523620605469    0.8699951171875000 Cl
   0.6980476379394531    0.0483398437500000    0.8699951171875000 Cl
   0.0483398437500000    0.3502922058105469    0.1300048828125000 Cl
   0.6497077941894531    0.6980476379394531    0.1300048828125000 Cl
   0.3019523620605469    0.9516601562500000    0.1300048828125000 Cl
   0.6183269023895264    0.9830411672592163    0.2033284902572632 Cl
   0.0169588923454285    0.6352857351303101    0.2033284902572632 Cl
   0.3647143244743347    0.3816732168197632    0.2033284902572632 Cl
   0.7150065302848816    0.6836255788803101    0.4633382558822632 Cl
   0.3163745403289795    0.0313809812068939    0.4633382558822632 Cl
   0.9686190485954285    0.2849935293197632    0.4633382558822632 Cl
   0.2849935293197632    0.3163745403289795    0.5366618633270264 Cl
   0.6836255788803101    0.9686190485954285    0.5366618633270264 Cl
   0.0313809812068939    0.7150065302848816    0.5366618633270264 Cl
   0.3816732168197632    0.0169588923454285    0.7966715693473816 Cl
   0.9830411672592163    0.3647143244743347    0.7966715693473816 Cl
   0.6352857351303101    0.6183269023895264    0.7966715693473816 Cl
