Mn2 Be2 Cr2 Fe2 N2
1.0
   4.8331601812843079    0.0000000000000000   -0.3947040603867400
  -0.0003328430209275    4.6920518656782821   -0.0003067691897589
   0.0000000000000000    0.0000000000000000    4.8361520767211914
Be N Cr Mn Fe
2 2 2 2 2
direct
   0.0757751464843750    0.3623657226562500    0.8830566406250000 Be
   0.9242248535156250    0.8623657226562500    0.1169433593750000 Be
   0.3003845214843750    0.6237335205078125    0.7068481445312500 N
   0.6996154785156250    0.1237335205078125    0.2931518554687500 N
   0.3843383789062500    0.9423217773437500    0.9781188964843750 Cr
   0.6156616210937500    0.4423217773437500    0.0218811035156250 Cr
   0.0034179687500000    0.9436645507812500    0.6129760742187500 Mn
   0.9965820312500000    0.4436645507812500    0.3870239257812500 Mn
   0.5496978759765625    0.7427978515625000    0.4144287109375000 Fe
   0.4503021240234375    0.2427978515625000    0.5855712890625000 Fe
