Ni3 Pt4
1.0
   3.9322504913208967    0.0000000000000000   -0.0002570929155622
  -0.0002571097250021    3.9322504829153524   -0.0002570929155622
   0.0000000000000000    0.0000000000000000    5.7269515991210938
Ni Pt
3 4
direct
   0.0000000000000000    0.0000000000000000    0.0000000000000000 Ni
   0.0000000000000000    0.0000000000000000    0.5000000000000000 Ni
   0.5000000000000000    0.5000000000000000    0.0000000000000000 Ni
   0.0000000000000000    0.5000000000000000    0.7411804199218750 Pt
   0.5000000000000000    0.0000000000000000    0.7411804199218750 Pt
   0.0000000000000000    0.5000000000000000    0.2588195800781250 Pt
   0.5000000000000000    0.0000000000000000    0.2588195800781250 Pt
