Ti6 C6 O18
1.0
   5.1505498776025087    0.0000000000000000   -0.0003367460663313
  -2.5749827416985074    4.4606757247782607   -0.0003367460663313
   0.0000000000000000    0.0000000000000000   13.3118495941162109
Ti C O
6 6 18
direct
   0.0000000000000000    0.0000000000000000    0.0000000000000000 Ti
   0.6666666865348816    0.3333333432674408    0.3333333432674408 Ti
   0.3333333432674408    0.6666666865348816    0.6666666865348816 Ti
   0.3333333432674408    0.6666666865348816    0.1666666716337204 Ti
   0.6666666269302368    0.3333333134651184    0.8333333134651184 Ti
   0.0000000000000000    0.0000000000000000    0.5000000000000000 Ti
   0.3333333432674408    0.6666666865348816    0.4178466796875000 C
   0.6666666269302368    0.3333333134651184    0.5821533203125000 C
   0.0000000000000000    0.0000000000000000    0.7511800527572632 C
   0.3333333432674408    0.6666666269302368    0.9154866933822632 C
   0.6666666865348816    0.3333333730697632    0.0845134258270264 C
   0.0000000000000000    0.0000000000000000    0.2488200068473816 C
   0.3341941833496094    0.9438476562500000    0.4129638671875000 O
   0.0561523437500000    0.3903465270996094    0.4129638671875000 O
   0.6096534729003906    0.6658058166503906    0.4129638671875000 O
   0.6658058166503906    0.0561523437500000    0.5870361328125000 O
   0.9438476562500000    0.6096534729003906    0.5870361328125000 O
   0.3903465270996094    0.3341941833496094    0.5870361328125000 O
   0.0008609294891357    0.2771810293197632    0.7462972402572632 O
   0.7228190302848816    0.7236799001693726    0.7462972402572632 O
   0.2763202190399170    0.9991391897201538    0.7462972402572632 O
   0.3324725031852722    0.3894857168197632    0.9203695058822632 O
   0.6105144023895264    0.9429868459701538    0.9203695058822632 O
   0.0570132136344910    0.6675275564193726    0.9203695058822632 O
   0.6675275564193726    0.6105144023895264    0.0796306133270264 O
   0.3894857168197632    0.0570132136344910    0.0796306133270264 O
   0.9429868459701538    0.3324725031852722    0.0796306133270264 O
   0.9991391897201538    0.7228190302848816    0.2537028193473816 O
   0.2771810293197632    0.2763202190399170    0.2537028193473816 O
   0.7236799001693726    0.0008609294891357    0.2537028193473816 O
