Sb2 Se2 Br8
1.0
   7.8229479622533100    0.0000000000000000   -0.0005114690695179
  -0.0004464052477879    6.8273467725715680   -0.0004463760624968
   0.0000000000000000    0.0000000000000000    7.2072472572326660
Se Br Sb Br
2 4 2 4
direct
   0.5000000000000000    0.6545410156250000    0.1576375961303711 Se
   0.0000000000000000    0.3454589843750000    0.6576375961303711 Se
   0.0000000000000000    0.4512329101562500    0.9734954833984375 Br
   0.5000000000000000    0.5487670898437500    0.4734954833984375 Br
   0.5000000000000000    0.3330078125000000    0.8828887939453125 Br
   0.0000000000000000    0.6669921875000000    0.3828887939453125 Br
   0.0000000000000000    0.0135955810546875    0.5204162597656250 Sb
   0.5000000000000000    0.9864044189453125    0.0204162597656250 Sb
   0.2429199218750000    0.8916015625000000    0.7820434570312500 Br
   0.2570800781250000    0.1083984375000000    0.2820434570312500 Br
   0.7429199218750000    0.1083984375000000    0.2820434570312500 Br
   0.7570800781250000    0.8916015625000000    0.7820434570312500 Br
