Cs4 I12
1.0
  11.7136459100228798    0.0000000000000000   -0.0007658452546495
  -0.0004549708256329    6.9583491981590058   -0.0004549410803374
   0.0000000000000000    0.0000000000000000   10.8359479904174805
I Cs I
4 4 8
direct
   0.2388916015625000    0.2500000000000000    0.1148071289062500 I
   0.2611083984375000    0.7500000000000000    0.6148071289062500 I
   0.7611083984375000    0.7500000000000000    0.8851928710937500 I
   0.7388916015625000    0.2500000000000000    0.3851928710937500 I
   0.2581176757812500    0.2500000000000000    0.4700775146484375 Cs
   0.2418823242187500    0.7500000000000000    0.9700775146484375 Cs
   0.7418823242187500    0.7500000000000000    0.5299224853515625 Cs
   0.7581176757812500    0.2500000000000000    0.0299224853515625 Cs
   0.5016717910766602    0.5328521728515625    0.2307434082031250 I
   0.9983282089233398    0.4671478271484375    0.7307434082031250 I
   0.4983282089233398    0.0328521728515625    0.7692565917968750 I
   0.0016717910766602    0.9671478271484375    0.2692565917968750 I
   0.4983282089233398    0.4671478271484375    0.7692565917968750 I
   0.0016717910766602    0.5328521728515625    0.2692565917968750 I
   0.5016717910766602    0.9671478271484375    0.2307434082031250 I
   0.9983282089233398    0.0328521728515625    0.7307434082031250 I
