Np2 U2 Si4
1.0
   3.9846513186167365    0.0000000000000000   -0.0002605189133457
  -0.0002725274969928    4.1680507481731981   -0.0002725096795626
   0.0000000000000000    0.0000000000000000   14.2550497055053711
Si U Np
4 2 2
direct
   0.5000000000000000    0.0000000000000000    0.9712829589843750 Si
   0.0000000000000000    0.5000000000000000    0.4712829589843750 Si
   0.0000000000000000    0.5000000000000000    0.2858886718750000 Si
   0.5000000000000000    0.0000000000000000    0.7858886718750000 Si
   0.0000000000000000    0.5000000000000000    0.0302734375000000 U
   0.5000000000000000    0.0000000000000000    0.5302734375000000 U
   0.0000000000000000    0.5000000000000000    0.7102813720703125 Np
   0.5000000000000000    0.0000000000000000    0.2102813720703125 Np
