K4 Rb8 In4 Br24
1.0
  11.8708486303289789    0.0000000000000000   -0.0007761232635879
  -0.0007761740086554   11.8708486049539577   -0.0007761232635879
   0.0000000000000000    0.0000000000000000   11.8708486557006836
In K Rb Br
4 4 8 24
direct
   0.0000000000000000    0.0000000000000000    0.0000000000000000 In
   0.0000000000000000    0.5000000000000000    0.5000000000000000 In
   0.5000000000000000    0.0000000000000000    0.5000000000000000 In
   0.5000000000000000    0.5000000000000000    0.0000000000000000 In
   0.5000000000000000    0.0000000000000000    0.0000000000000000 K
   0.0000000000000000    0.5000000000000000    0.0000000000000000 K
   0.0000000000000000    0.0000000000000000    0.5000000000000000 K
   0.5000000000000000    0.5000000000000000    0.5000000000000000 K
   0.2500000000000000    0.2500000000000000    0.2500000000000000 Rb
   0.7500000000000000    0.7500000000000000    0.2500000000000000 Rb
   0.7500000000000000    0.2500000000000000    0.7500000000000000 Rb
   0.2500000000000000    0.7500000000000000    0.7500000000000000 Rb
   0.2500000000000000    0.2500000000000000    0.7500000000000000 Rb
   0.7500000000000000    0.7500000000000000    0.7500000000000000 Rb
   0.2500000000000000    0.7500000000000000    0.2500000000000000 Rb
   0.7500000000000000    0.2500000000000000    0.2500000000000000 Rb
   0.7669067382812500    0.0000000000000000    0.0000000000000000 Br
   0.2330932617187500    0.0000000000000000    0.0000000000000000 Br
   0.0000000000000000    0.7669067382812500    0.0000000000000000 Br
   0.0000000000000000    0.2330932617187500    0.0000000000000000 Br
   0.0000000000000000    0.0000000000000000    0.7669067382812500 Br
   0.0000000000000000    0.0000000000000000    0.2330932617187500 Br
   0.7669067382812500    0.5000000000000000    0.5000000000000000 Br
   0.2330932617187500    0.5000000000000000    0.5000000000000000 Br
   0.0000000000000000    0.2669067382812500    0.5000000000000000 Br
   0.0000000000000000    0.7330932617187500    0.5000000000000000 Br
   0.0000000000000000    0.5000000000000000    0.2669067382812500 Br
   0.0000000000000000    0.5000000000000000    0.7330932617187500 Br
   0.2669067382812500    0.0000000000000000    0.5000000000000000 Br
   0.7330932617187500    0.0000000000000000    0.5000000000000000 Br
   0.5000000000000000    0.7669067382812500    0.5000000000000000 Br
   0.5000000000000000    0.2330932617187500    0.5000000000000000 Br
   0.5000000000000000    0.0000000000000000    0.2669067382812500 Br
   0.5000000000000000    0.0000000000000000    0.7330932617187500 Br
   0.2669067382812500    0.5000000000000000    0.0000000000000000 Br
   0.7330932617187500    0.5000000000000000    0.0000000000000000 Br
   0.5000000000000000    0.2669067382812500    0.0000000000000000 Br
   0.5000000000000000    0.7330932617187500    0.0000000000000000 Br
   0.5000000000000000    0.5000000000000000    0.7669067382812500 Br
   0.5000000000000000    0.5000000000000000    0.2330932617187500 Br
