Pr3 Er18 Co3 I36
1.0
  15.8401507992745412    0.0000000000000000   -0.0010356386402441
  -7.9191767681744913   13.7184917778217628   -0.0010356386402441
   0.0000000000000000    0.0000000000000000   11.5171480178833008
Co Pr I Er
3 3 36 18
direct
   0.0000000000000000    0.0000000000000000    0.0000000000000000 Co
   0.6666666865348816    0.3333333432674408    0.3333333432674408 Co
   0.3333333432674408    0.6666666865348816    0.6666666865348816 Co
   0.3333333432674408    0.6666666865348816    0.1666666716337204 Pr
   0.6666666269302368    0.3333333134651184    0.8333333134651184 Pr
   0.0000000000000000    0.0000000000000000    0.5000000000000000 Pr
   0.0488891601562500    0.8723754882812500    0.3293914794921875 I
   0.1276245117187500    0.1765136718750000    0.3293914794921875 I
   0.8234863281250000    0.9511108398437500    0.3293914794921875 I
   0.9511108398437500    0.1276245117187500    0.6706085205078125 I
   0.8723754882812500    0.8234863281250000    0.6706085205078125 I
   0.1765136718750000    0.0488891601562500    0.6706085205078125 I
   0.7155558466911316    0.2057088613510132    0.6627248525619507 I
   0.7942911982536316    0.5098470449447632    0.6627248525619507 I
   0.4901530742645264    0.2844441831111908    0.6627248525619507 I
   0.6177775263786316    0.4609578847885132    0.0039418637752533 I
   0.5390422344207764    0.1568197011947632    0.0039418637752533 I
   0.8431803584098816    0.3822225034236908    0.0039418637752533 I
   0.3822225034236908    0.5390422344207764    0.9960581660270691 I
   0.4609578847885132    0.8431803584098816    0.9960581660270691 I
   0.1568197011947632    0.6177775263786316    0.9960581660270691 I
   0.2844441831111908    0.7942911982536316    0.3372752070426941 I
   0.2057088613510132    0.4901530742645264    0.3372752070426941 I
   0.5098470449447632    0.7155558466911316    0.3372752070426941 I
   0.2585220336914062    0.3587036132812500    0.6763305664062500 I
   0.6412963867187500    0.8998184204101562    0.6763305664062500 I
   0.1001815795898438    0.7414779663085938    0.6763305664062500 I
   0.7414779663085938    0.6412963867187500    0.3236694335937500 I
   0.3587036132812500    0.1001815795898438    0.3236694335937500 I
   0.8998184204101562    0.2585220336914062    0.3236694335937500 I
   0.9251887202262878    0.6920369863510132    0.0096639394760132 I
   0.3079630732536316    0.2331517636775970    0.0096639394760132 I
   0.7668482661247253    0.0748113095760345    0.0096639394760132 I
   0.4081446528434753    0.9746297597885132    0.6570028066635132 I
   0.0253703594207764    0.4335149228572845    0.6570028066635132 I
   0.5664851069450378    0.5918554067611694    0.6570028066635132 I
   0.5918554067611694    0.0253703594207764    0.3429973125457764 I
   0.9746297597885132    0.5664851069450378    0.3429973125457764 I
   0.4335149228572845    0.4081446528434753    0.3429973125457764 I
   0.0748113095760345    0.3079630732536316    0.9903361201286316 I
   0.6920369863510132    0.7668482661247253    0.9903361201286316 I
   0.2331517636775970    0.9251887202262878    0.9903361201286316 I
   0.2930908203125000    0.7791137695312500    0.7975463867187500 Er
   0.2208862304687500    0.5139770507812500    0.7975463867187500 Er
   0.4860229492187500    0.7069091796875000    0.7975463867187500 Er
   0.7069091796875000    0.2208862304687500    0.2024536132812500 Er
   0.7791137695312500    0.4860229492187500    0.2024536132812500 Er
   0.5139770507812500    0.2930908203125000    0.2024536132812500 Er
   0.9597575068473816    0.1124471426010132    0.1308797597885132 Er
   0.8875529170036316    0.8473104238510132    0.1308797597885132 Er
   0.1526896953582764    0.0402425229549408    0.1308797597885132 Er
   0.3735758662223816    0.5542196035385132    0.5357869863510132 Er
   0.4457805156707764    0.8193563222885132    0.5357869863510132 Er
   0.1806437373161316    0.6264241933822632    0.5357869863510132 Er
   0.6264241933822632    0.4457805156707764    0.4642131328582764 Er
   0.5542196035385132    0.1806437373161316    0.4642131328582764 Er
   0.8193563222885132    0.3735758662223816    0.4642131328582764 Er
   0.0402425229549408    0.8875529170036316    0.8691202998161316 Er
   0.1124471426010132    0.1526896953582764    0.8691202998161316 Er
   0.8473104238510132    0.9597575068473816    0.8691202998161316 Er
