Pu1 In3
1.0
   4.6920518774838289    0.0000000000000000   -0.0003067691897589
  -0.0003067892471698    4.6920518674541398   -0.0003067691897589
   0.0000000000000000    0.0000000000000000    4.6920518875122070
Pu In
1 3
direct
   0.0000000000000000    0.0000000000000000    0.0000000000000000 Pu
   0.5000000000000000    0.5000000000000000    0.0000000000000000 In
   0.0000000000000000    0.5000000000000000    0.5000000000000000 In
   0.5000000000000000    0.0000000000000000    0.5000000000000000 In
