K16 Nb8 S32
1.0
   6.7487492417098522    0.0000000000000000   -0.0004412373074348
  -0.0008892376283498   13.6000499143952851   -0.0008891794913561
   0.0000000000000000    0.0000000000000000   21.6172485351562500
Nb K S
8 16 32
direct
   0.1250000000000000    0.1250000000000000    0.6250000000000000 Nb
   0.6250000000000000    0.6250000000000000    0.6250000000000000 Nb
   0.6250000000000000    0.1250000000000000    0.1250000000000000 Nb
   0.1250000000000000    0.6250000000000000    0.1250000000000000 Nb
   0.8750000000000000    0.8750000000000000    0.3750000000000000 Nb
   0.3750000000000000    0.3750000000000000    0.3750000000000000 Nb
   0.3750000000000000    0.8750000000000000    0.8750000000000000 Nb
   0.8750000000000000    0.3750000000000000    0.8750000000000000 Nb
   0.5535888671875000    0.1250000000000000    0.6250000000000000 K
   0.1964111328125000    0.6250000000000000    0.6250000000000000 K
   0.1964111328125000    0.1250000000000000    0.1250000000000000 K
   0.5535888671875000    0.6250000000000000    0.1250000000000000 K
   0.4464111328125000    0.8750000000000000    0.3750000000000000 K
   0.8035888671875000    0.3750000000000000    0.3750000000000000 K
   0.8035888671875000    0.8750000000000000    0.8750000000000000 K
   0.4464111328125000    0.3750000000000000    0.8750000000000000 K
   0.0535888671875000    0.1250000000000000    0.1250000000000000 K
   0.6964111328125000    0.6250000000000000    0.1250000000000000 K
   0.6964111328125000    0.1250000000000000    0.6250000000000000 K
   0.0535888671875000    0.6250000000000000    0.6250000000000000 K
   0.9464111328125000    0.8750000000000000    0.8750000000000000 K
   0.3035888671875000    0.3750000000000000    0.8750000000000000 K
   0.3035888671875000    0.8750000000000000    0.3750000000000000 K
   0.9464111328125000    0.3750000000000000    0.3750000000000000 K
   0.0001831054687500    0.2646484375000000    0.9369659423828125 S
   0.7498168945312500    0.4853515625000000    0.9369659423828125 S
   0.7498168945312500    0.2646484375000000    0.8130340576171875 S
   0.0001831054687500    0.4853515625000000    0.8130340576171875 S
   0.9998168945312500    0.7353515625000000    0.0630340576171875 S
   0.2501831054687500    0.5146484375000000    0.0630340576171875 S
   0.2501831054687500    0.7353515625000000    0.1869659423828125 S
   0.9998168945312500    0.5146484375000000    0.1869659423828125 S
   0.0001831054687500    0.7646484375000000    0.4369659423828125 S
   0.7498168945312500    0.9853515625000000    0.4369659423828125 S
   0.7498168945312500    0.7646484375000000    0.3130340576171875 S
   0.0001831054687500    0.9853515625000000    0.3130340576171875 S
   0.9998168945312500    0.2353515625000000    0.5630340576171875 S
   0.2501831054687500    0.0146484375000000    0.5630340576171875 S
   0.2501831054687500    0.2353515625000000    0.6869659423828125 S
   0.9998168945312500    0.0146484375000000    0.6869659423828125 S
   0.5001831054687500    0.2646484375000000    0.4369659423828125 S
   0.2498168945312500    0.4853515625000000    0.4369659423828125 S
   0.2498168945312500    0.2646484375000000    0.3130340576171875 S
   0.5001831054687500    0.4853515625000000    0.3130340576171875 S
   0.4998168945312500    0.7353515625000000    0.5630340576171875 S
   0.7501831054687500    0.5146484375000000    0.5630340576171875 S
   0.7501831054687500    0.7353515625000000    0.6869659423828125 S
   0.4998168945312500    0.5146484375000000    0.6869659423828125 S
   0.5001831054687500    0.7646484375000000    0.9369659423828125 S
   0.2498168945312500    0.9853515625000000    0.9369659423828125 S
   0.2498168945312500    0.7646484375000000    0.8130340576171875 S
   0.5001831054687500    0.9853515625000000    0.8130340576171875 S
   0.4998168945312500    0.2353515625000000    0.0630340576171875 S
   0.7501831054687500    0.0146484375000000    0.0630340576171875 S
   0.7501831054687500    0.2353515625000000    0.1869659423828125 S
   0.4998168945312500    0.0146484375000000    0.1869659423828125 S
