Gd2 Br2 O2
1.0
   4.4693536662898827    0.0000000000000000   -0.0002922090460110
  -0.0002922281514398    4.4693536567362315   -0.0002922090460110
   0.0000000000000000    0.0000000000000000    7.3644499778747559
O Br Gd
2 2 2
direct
   0.7500000000000000    0.2500000000000000    0.0000000000000000 O
   0.2500000000000000    0.7500000000000000    0.0000000000000000 O
   0.2500000000000000    0.2500000000000000    0.6369628906250000 Br
   0.7500000000000000    0.7500000000000000    0.3630371093750000 Br
   0.7500000000000000    0.7500000000000000    0.8743896484375000 Gd
   0.2500000000000000    0.2500000000000000    0.1256103515625000 Gd
