Ca2 Nd2 Mn4 O10
1.0
   4.2317608360204062    0.0000000000000000   -3.1820621730697436
  -0.0007448834414239    5.6876525269575069   -0.0003718621656041
   0.0000000000000000    0.0000000000000000    8.9888534545898438
O Ca Mn Nd
10 2 4 2
direct
   0.3601074218750000    0.7429809570312500    0.6571197509765625 O
   0.3601074218750000    0.2570190429687500    0.1571197509765625 O
   0.7905273437500000    0.5036010742187500    0.1813964843750000 O
   0.7905273437500000    0.4963989257812500    0.6813964843750000 O
   0.7937011718750000    0.0485534667968750    0.0045166015625000 O
   0.7937011718750000    0.9514465332031250    0.5045166015625000 O
   0.2800292968750000    0.2925720214843750    0.4361572265625000 O
   0.2800292968750000    0.7074279785156250    0.9361572265625000 O
   0.2529296875000000    0.8088073730468750    0.2712402343750000 O
   0.2529296875000000    0.1911926269531250    0.7712402343750000 O
   0.9185791015625000    0.3786621093750000    0.4837646484375000 Ca
   0.9185791015625000    0.6213378906250000    0.9837646484375000 Ca
   0.4348144531250000    0.6299133300781250    0.4878540039062500 Mn
   0.4348144531250000    0.3700866699218750    0.9878540039062500 Mn
   0.1431884765625000    0.8650512695312500    0.7283935546875000 Mn
   0.1431884765625000    0.1349487304687500    0.2283935546875000 Mn
   0.6540527343750000    0.1124267578125000    0.7064666748046875 Nd
   0.6540527343750000    0.8875732421875000    0.2064666748046875 Nd
