Rb4 Te4 O12
1.0
   6.6051679795068168    0.0000000000000000   -3.0749546403820589
  -0.0008103468703148    7.9015530955508968   -0.0005166083233943
   0.0000000000000000    0.0000000000000000    8.3338508605957031
O Rb Te
12 4 4
direct
   0.4530639648437500    0.4976806640625000    0.2042236328125000 O
   0.5469360351562500    0.9976806640625000    0.2957763671875000 O
   0.5469360351562500    0.5023193359375000    0.7957763671875000 O
   0.4530639648437500    0.0023193359375000    0.7042236328125000 O
   0.5222625732421875    0.2750244140625000    0.5131912231445312 O
   0.4777374267578125    0.7750244140625000    0.9868087768554688 O
   0.4777374267578125    0.7249755859375000    0.4868087768554688 O
   0.5222625732421875    0.2249755859375000    0.0131912231445312 O
   0.8268432617187500    0.8029174804687500    0.9357604980468750 O
   0.1731567382812500    0.3029174804687500    0.5642395019531250 O
   0.1731567382812500    0.1970825195312500    0.0642395019531250 O
   0.8268432617187500    0.6970825195312500    0.4357604980468750 O
   0.1032714843750000    0.5698242187500000    0.8268585205078125 Rb
   0.8967285156250000    0.0698242187500000    0.6731414794921875 Rb
   0.8967285156250000    0.4301757812500000    0.1731414794921875 Rb
   0.1032714843750000    0.9301757812500000    0.3268585205078125 Rb
   0.4431762695312500    0.2426757812500000    0.2073364257812500 Te
   0.5568237304687500    0.7426757812500000    0.2926635742187500 Te
   0.5568237304687500    0.7573242187500000    0.7926635742187500 Te
   0.4431762695312500    0.2573242187500000    0.7073364257812500 Te
