Fe8 P4 O12
1.0
   6.8132596749212313    0.0000000000000000   -4.4011621207470686
  -0.0009754721451216    8.1242512897354953   -0.0005311684671422
   0.0000000000000000    0.0000000000000000    6.2247481346130371
O P O Fe
4 4 8 8
direct
   0.0000000000000000    0.8083329200744629    0.2500000000000000 O
   0.0000000000000000    0.1916670799255371    0.7500000000000000 O
   0.5000000000000000    0.3083329200744629    0.2500000000000000 O
   0.5000000000000000    0.6916670799255371    0.7500000000000000 O
   0.0000000000000000    0.0017395019531250    0.2500000000000000 P
   0.0000000000000000    0.9982604980468750    0.7500000000000000 P
   0.5000000000000000    0.5017395019531250    0.2500000000000000 P
   0.5000000000000000    0.4982604980468750    0.7500000000000000 P
   0.2989501953125000    0.4119415283203125    0.6434478759765625 O
   0.7010498046875000    0.4119415283203125    0.8565521240234375 O
   0.7010498046875000    0.5880584716796875    0.3565521240234375 O
   0.2989501953125000    0.5880584716796875    0.1434478759765625 O
   0.7989501953125000    0.9119415283203125    0.6434478759765625 O
   0.2010498046875000    0.9119415283203125    0.8565521240234375 O
   0.2010498046875000    0.0880584716796875    0.3565521240234375 O
   0.7989501953125000    0.0880584716796875    0.1434478759765625 O
   0.2631225585937500    0.1646728515625000    0.7388610839843750 Fe
   0.7368774414062500    0.1646728515625000    0.7611389160156250 Fe
   0.7368774414062500    0.8353271484375000    0.2611389160156250 Fe
   0.2631225585937500    0.8353271484375000    0.2388610839843750 Fe
   0.7631225585937500    0.6646728515625000    0.7388610839843750 Fe
   0.2368774414062500    0.6646728515625000    0.7611389160156250 Fe
   0.2368774414062500    0.3353271484375000    0.2611389160156250 Fe
   0.7631225585937500    0.3353271484375000    0.2388610839843750 Fe
