W1 Se1 S2
1.0
   3.3034477163281744    0.0000000000000000   -0.0002159814097990
  -1.6515364494650693    2.8609778346925627   -0.0002159814097990
   0.0000000000000000    0.0000000000000000   13.0367469787597656
W S Se
1 2 1
direct
   0.0000000000000000    0.0000000000000000    0.4916992187500000 W
   0.3333333432674408    0.6666666865348816    0.3728027343750000 S
   0.3333333432674408    0.6666666865348816    0.0700683593750000 S
   0.3333333432674408    0.6666666865348816    0.6254882812500000 Se
