Ba8 Al16
1.0
   6.0020503869520203    0.0000000000000000   -0.0003924176846665
  -0.0005963004281958    9.1198520270535557   -0.0005962614429875
   0.0000000000000000    0.0000000000000000   10.2071495056152344
Ba Al
8 16
direct
   0.1250000000000000    0.1250000000000000    0.1250000000000000 Ba
   0.6250000000000000    0.6250000000000000    0.1250000000000000 Ba
   0.6250000000000000    0.1250000000000000    0.6250000000000000 Ba
   0.1250000000000000    0.6250000000000000    0.6250000000000000 Ba
   0.8750000000000000    0.8750000000000000    0.8750000000000000 Ba
   0.3750000000000000    0.3750000000000000    0.8750000000000000 Ba
   0.3750000000000000    0.8750000000000000    0.3750000000000000 Ba
   0.8750000000000000    0.3750000000000000    0.3750000000000000 Ba
   0.1250000000000000    0.2623291015625000    0.6250000000000000 Al
   0.6250000000000000    0.4876708984375000    0.6250000000000000 Al
   0.6250000000000000    0.2623291015625000    0.1250000000000000 Al
   0.1250000000000000    0.4876708984375000    0.1250000000000000 Al
   0.8750000000000000    0.7376708984375000    0.3750000000000000 Al
   0.3750000000000000    0.5123291015625000    0.3750000000000000 Al
   0.3750000000000000    0.7376708984375000    0.8750000000000000 Al
   0.8750000000000000    0.5123291015625000    0.8750000000000000 Al
   0.1250000000000000    0.7623291015625000    0.1250000000000000 Al
   0.6250000000000000    0.9876708984375000    0.1250000000000000 Al
   0.6250000000000000    0.7623291015625000    0.6250000000000000 Al
   0.1250000000000000    0.9876708984375000    0.6250000000000000 Al
   0.8750000000000000    0.2376708984375000    0.8750000000000000 Al
   0.3750000000000000    0.0123291015625000    0.8750000000000000 Al
   0.3750000000000000    0.2376708984375000    0.3750000000000000 Al
   0.8750000000000000    0.0123291015625000    0.3750000000000000 Al
