Cs8 Li4 Pr4 Cl24
1.0
  11.0324496987102538    0.0000000000000000   -0.0007213082343292
  -0.0007213553954398   11.0324496751273866   -0.0007213082343292
   0.0000000000000000    0.0000000000000000   11.0324497222900391
Pr Li Cs Cl
4 4 8 24
direct
   0.0000000000000000    0.0000000000000000    0.0000000000000000 Pr
   0.0000000000000000    0.5000000000000000    0.5000000000000000 Pr
   0.5000000000000000    0.0000000000000000    0.5000000000000000 Pr
   0.5000000000000000    0.5000000000000000    0.0000000000000000 Pr
   0.5000000000000000    0.0000000000000000    0.0000000000000000 Li
   0.0000000000000000    0.5000000000000000    0.0000000000000000 Li
   0.0000000000000000    0.0000000000000000    0.5000000000000000 Li
   0.5000000000000000    0.5000000000000000    0.5000000000000000 Li
   0.2500000000000000    0.2500000000000000    0.2500000000000000 Cs
   0.7500000000000000    0.7500000000000000    0.2500000000000000 Cs
   0.7500000000000000    0.2500000000000000    0.7500000000000000 Cs
   0.2500000000000000    0.7500000000000000    0.7500000000000000 Cs
   0.2500000000000000    0.2500000000000000    0.7500000000000000 Cs
   0.7500000000000000    0.7500000000000000    0.7500000000000000 Cs
   0.2500000000000000    0.7500000000000000    0.2500000000000000 Cs
   0.7500000000000000    0.2500000000000000    0.2500000000000000 Cs
   0.2521667480468750    0.0000000000000000    0.0000000000000000 Cl
   0.7478332519531250    0.0000000000000000    0.0000000000000000 Cl
   0.0000000000000000    0.2521667480468750    0.0000000000000000 Cl
   0.0000000000000000    0.7478332519531250    0.0000000000000000 Cl
   0.0000000000000000    0.0000000000000000    0.2521667480468750 Cl
   0.0000000000000000    0.0000000000000000    0.7478332519531250 Cl
   0.2521667480468750    0.5000000000000000    0.5000000000000000 Cl
   0.7478332519531250    0.5000000000000000    0.5000000000000000 Cl
   0.0000000000000000    0.7521667480468750    0.5000000000000000 Cl
   0.0000000000000000    0.2478332519531250    0.5000000000000000 Cl
   0.0000000000000000    0.5000000000000000    0.7521667480468750 Cl
   0.0000000000000000    0.5000000000000000    0.2478332519531250 Cl
   0.7521667480468750    0.0000000000000000    0.5000000000000000 Cl
   0.2478332519531250    0.0000000000000000    0.5000000000000000 Cl
   0.5000000000000000    0.2521667480468750    0.5000000000000000 Cl
   0.5000000000000000    0.7478332519531250    0.5000000000000000 Cl
   0.5000000000000000    0.0000000000000000    0.7521667480468750 Cl
   0.5000000000000000    0.0000000000000000    0.2478332519531250 Cl
   0.7521667480468750    0.5000000000000000    0.0000000000000000 Cl
   0.2478332519531250    0.5000000000000000    0.0000000000000000 Cl
   0.5000000000000000    0.7521667480468750    0.0000000000000000 Cl
   0.5000000000000000    0.2478332519531250    0.0000000000000000 Cl
   0.5000000000000000    0.5000000000000000    0.2521667480468750 Cl
   0.5000000000000000    0.5000000000000000    0.7478332519531250 Cl
