Rb2 Tm8 Ga8
1.0
   8.1373538797026637    0.0000000000000000   -0.0005320251185706
  -0.0005320599038319    8.1373538623083270   -0.0005320251185706
   0.0000000000000000    0.0000000000000000    6.9190464019775391
Rb Tm Ga
2 8 8
direct
   0.7500000000000000    0.7500000000000000    0.0000000000000000 Rb
   0.2500000000000000    0.2500000000000000    0.0000000000000000 Rb
   0.9040832519531250    0.9040832519531250    0.5000000000000000 Tm
   0.5959167480468750    0.5959167480468750    0.5000000000000000 Tm
   0.5959167480468750    0.9040832519531250    0.5000000000000000 Tm
   0.9040832519531250    0.5959167480468750    0.5000000000000000 Tm
   0.0959167480468750    0.0959167480468750    0.5000000000000000 Tm
   0.4040832519531250    0.4040832519531250    0.5000000000000000 Tm
   0.4040832519531250    0.0959167480468750    0.5000000000000000 Tm
   0.0959167480468750    0.4040832519531250    0.5000000000000000 Tm
   0.1390686035156250    0.8609313964843750    0.8106079101562500 Ga
   0.3609313964843750    0.6390686035156250    0.8106079101562500 Ga
   0.6390686035156250    0.1390686035156250    0.8106079101562500 Ga
   0.8609313964843750    0.3609313964843750    0.8106079101562500 Ga
   0.3609313964843750    0.8609313964843750    0.1893920898437500 Ga
   0.1390686035156250    0.6390686035156250    0.1893920898437500 Ga
   0.8609313964843750    0.1390686035156250    0.1893920898437500 Ga
   0.6390686035156250    0.3609313964843750    0.1893920898437500 Ga
