Ti2 P4 O12
1.0
   4.8223355069988134    0.0000000000000000   -0.0830167083231563
  -0.4576278345732004    5.7266513683320426   -0.4956682075586020
   0.0000000000000000    0.0000000000000000    8.0849523544311523
Ti O P
2 12 4
direct
   0.0000000000000000    0.0000000000000000    0.0000000000000000 Ti
   0.5000000000000000    0.5000000000000000    0.5000000000000000 Ti
   0.1986389160156250    0.6990661621093750    0.4018554687500000 O
   0.8013610839843750    0.3009338378906250    0.5981445312500000 O
   0.8838500976562500    0.9689941406250000    0.2499389648437500 O
   0.1161499023437500    0.0310058593750000    0.7500610351562500 O
   0.2753295898437500    0.4791374206542969    0.7054748535156250 O
   0.7246704101562500    0.5208625793457031    0.2945251464843750 O
   0.3590698242187500    0.1804809570312500    0.4139404296875000 O
   0.6409301757812500    0.8195190429687500    0.5860595703125000 O
   0.2889404296875000    0.1683349609375000    0.0925292968750000 O
   0.7110595703125000    0.8316650390625000    0.9074707031250000 O
   0.8576354980468750    0.2871093750000000    0.8842163085937500 O
   0.1423645019531250    0.7128906250000000    0.1157836914062500 O
   0.0403823852539062    0.3142089843750000    0.7357788085937500 P
   0.9596176147460938    0.6857910156250000    0.2642211914062500 P
   0.2341308593750000    0.0073242187500000    0.2730865478515625 P
   0.7658691406250000    0.9926757812500000    0.7269134521484375 P
