Nd4 Zn2 O8
1.0
   3.8143505968585298    0.0000000000000000   -0.0002493845491500
  -0.0002648186265864    4.0501508539628528   -0.0002648013131504
   0.0000000000000000    0.0000000000000000   11.0717487335205078
Zn O Nd
2 8 4
direct
   0.5000000000000000    0.0000000000000000    0.0000000000000000 Zn
   0.0000000000000000    0.5000000000000000    0.5000000000000000 Zn
   0.0000000000000000    0.0000000000000000    0.9304504394531250 O
   0.5000000000000000    0.5000000000000000    0.5695495605468750 O
   0.0000000000000000    0.0000000000000000    0.0695495605468750 O
   0.5000000000000000    0.5000000000000000    0.4304504394531250 O
   0.5000000000000000    0.0000000000000000    0.1734924316406250 O
   0.0000000000000000    0.5000000000000000    0.3265075683593750 O
   0.5000000000000000    0.0000000000000000    0.8265075683593750 O
   0.0000000000000000    0.5000000000000000    0.6734924316406250 O
   0.5000000000000000    0.0000000000000000    0.3507232666015625 Nd
   0.0000000000000000    0.5000000000000000    0.1492767333984375 Nd
   0.5000000000000000    0.0000000000000000    0.6492767333984375 Nd
   0.0000000000000000    0.5000000000000000    0.8507232666015625 Nd
