Pm8
1.0
   7.8360500168212539    0.0000000000000000   -0.0005123256897704
  -3.9175804595437471    6.7864750208871607   -0.0005123256897704
   0.0000000000000000    0.0000000000000000    6.2771492004394531
Pm
8
direct
   0.6666666865348816    0.3333333432674408    0.2500000000000000 Pm
   0.3333333134651184    0.6666666269302368    0.7500000000000000 Pm
   0.1671752929687500    0.3343505859375000    0.2500000000000000 Pm
   0.6656494140625000    0.8328247070312500    0.2500000000000000 Pm
   0.1671752929687500    0.8328247070312500    0.2500000000000000 Pm
   0.8328247070312500    0.6656494140625000    0.7500000000000000 Pm
   0.3343505859375000    0.1671752929687500    0.7500000000000000 Pm
   0.8328247070312500    0.1671752929687500    0.7500000000000000 Pm
