Cs4 Sb2 Br12
1.0
   7.7574529482026193    0.0000000000000000   -0.0005071869658843
  -0.0005072201271591    7.7574529316203558   -0.0005071869658843
   0.0000000000000000    0.0000000000000000   12.2114505767822266
Sb Cs Br
2 4 12
direct
   0.0000000000000000    0.0000000000000000    0.0000000000000000 Sb
   0.5000000000000000    0.5000000000000000    0.5000000000000000 Sb
   0.5000000000000000    0.0000000000000000    0.2500000000000000 Cs
   0.0000000000000000    0.5000000000000000    0.2500000000000000 Cs
   0.5000000000000000    0.0000000000000000    0.7500000000000000 Cs
   0.0000000000000000    0.5000000000000000    0.7500000000000000 Cs
   0.5000000000000000    0.5000000000000000    0.2761840820312500 Br
   0.0000000000000000    0.0000000000000000    0.2238159179687500 Br
   0.5000000000000000    0.5000000000000000    0.7238159179687500 Br
   0.0000000000000000    0.0000000000000000    0.7761840820312500 Br
   0.2866516113281250    0.7990417480468750    0.0000000000000000 Br
   0.7133483886718750    0.2009582519531250    0.0000000000000000 Br
   0.2009582519531250    0.2866516113281250    0.0000000000000000 Br
   0.7990417480468750    0.7133483886718750    0.0000000000000000 Br
   0.2133483886718750    0.2990417480468750    0.5000000000000000 Br
   0.7866516113281250    0.7009582519531250    0.5000000000000000 Br
   0.2990417480468750    0.7866516113281250    0.5000000000000000 Br
   0.7009582519531250    0.2133483886718750    0.5000000000000000 Br
