Li8 Ti4 Fe2 O16
1.0
   9.8664675228133749    0.0000000000000000   -0.0406833496070752
  -0.0002375145098367    3.6178490960280323   -0.0002365371626806
   0.0000000000000000    0.0000000000000000   10.2071495056152344
Li O Ti Fe
8 16 4 2
direct
   0.8192138671875000    0.0000000000000000    0.6649627685546875 Li
   0.3192138671875000    0.5000000000000000    0.6649627685546875 Li
   0.0678710937500000    0.0000000000000000    0.7053146362304688 Li
   0.5678710937500000    0.5000000000000000    0.7053146362304688 Li
   0.2528076171875000    0.0000000000000000    0.1973876953125000 Li
   0.7528076171875000    0.5000000000000000    0.1973876953125000 Li
   0.9048767089843750    0.0000000000000000    0.3818359375000000 Li
   0.4048767089843750    0.5000000000000000    0.3818359375000000 Li
   0.2446289062500000    0.0000000000000000    0.6439208984375000 O
   0.7446289062500000    0.5000000000000000    0.6439208984375000 O
   0.9375000000000000    0.0000000000000000    0.8324584960937500 O
   0.4375000000000000    0.5000000000000000    0.8324584960937500 O
   0.0654296875000000    0.0000000000000000    0.1417236328125000 O
   0.5654296875000000    0.5000000000000000    0.1417236328125000 O
   0.4091796875000000    0.0000000000000000    0.3064880371093750 O
   0.9091796875000000    0.5000000000000000    0.3064880371093750 O
   0.6872558593750000    0.0000000000000000    0.3425292968750000 O
   0.1872558593750000    0.5000000000000000    0.3425292968750000 O
   0.9819335937500000    0.0000000000000000    0.5463867187500000 O
   0.4819335937500000    0.5000000000000000    0.5463867187500000 O
   0.4575195312500000    0.0000000000000000    0.0278320312500000 O
   0.9575195312500000    0.5000000000000000    0.0278320312500000 O
   0.7617187500000000    0.0000000000000000    0.0870361328125000 O
   0.2617187500000000    0.5000000000000000    0.0870361328125000 O
   0.9163208007812500    0.0000000000000000    0.9970703125000000 Ti
   0.4163208007812500    0.5000000000000000    0.9970703125000000 Ti
   0.5585937500000000    0.0000000000000000    0.2087402343750000 Ti
   0.0585937500000000    0.5000000000000000    0.2087402343750000 Ti
   0.1655273437500000    0.0000000000000000    0.4612770080566406 Fe
   0.6655273437500000    0.5000000000000000    0.4612770080566406 Fe
