Li18 Tm6 O18
1.0
   6.1723475324315480    0.0000000000000000   -0.0004035518150430
  -3.0858236012607723    5.3456119166112144   -0.0004035518150430
   0.0000000000000000    0.0000000000000000   15.1327505111694336
Tm Li O
6 18 18
direct
   0.3333333432674408    0.6666666865348816    0.8389892578125000 Tm
   0.6666666269302368    0.3333333134651184    0.1610107421875000 Tm
   0.0000000000000000    0.0000000000000000    0.1723226308822632 Tm
   0.3333333432674408    0.6666666269302368    0.4943441152572632 Tm
   0.6666666865348816    0.3333333730697632    0.5056560039520264 Tm
   0.0000000000000000    0.0000000000000000    0.8276774287223816 Tm
   0.7112274169921875    0.7264709472656250    0.6162109375000000 Li
   0.2735290527343750    0.9847564697265625    0.6162109375000000 Li
   0.0152435302734375    0.2887725830078125    0.6162109375000000 Li
   0.2887725830078125    0.2735290527343750    0.3837890625000000 Li
   0.7264709472656250    0.0152435302734375    0.3837890625000000 Li
   0.9847564697265625    0.7112274169921875    0.3837890625000000 Li
   0.3778941631317139    0.0598043203353882    0.9495443105697632 Li
   0.9401957392692566    0.3180898129940033    0.9495443105697632 Li
   0.6819102168083191    0.6221059560775757    0.9495443105697632 Li
   0.9554392695426941    0.6068624258041382    0.7171224355697632 Li
   0.3931376934051514    0.3485768735408783    0.7171224355697632 Li
   0.6514231562614441    0.0445607900619507    0.7171224355697632 Li
   0.0445607900619507    0.3931376934051514    0.2828776836395264 Li
   0.6068624258041382    0.6514231562614441    0.2828776836395264 Li
   0.3485768735408783    0.9554392695426941    0.2828776836395264 Li
   0.6221059560775757    0.9401957392692566    0.0504557490348816 Li
   0.0598043203353882    0.6819102168083191    0.0504557490348816 Li
   0.3180898129940033    0.3778941631317139    0.0504557490348816 Li
   0.3331756591796875    0.0374145507812500    0.0820312500000000 O
   0.9625854492187500    0.2957611083984375    0.0820312500000000 O
   0.7042388916015625    0.6668243408203125    0.0820312500000000 O
   0.6668243408203125    0.9625854492187500    0.9179687500000000 O
   0.0374145507812500    0.7042388916015625    0.9179687500000000 O
   0.2957611083984375    0.3331756591796875    0.9179687500000000 O
   0.9998423457145691    0.3707478940486908    0.4153645932674408 O
   0.6292521357536316    0.6290944814682007    0.4153645932674408 O
   0.3709055781364441    0.0001576840877533    0.4153645932674408 O
   0.3334910273551941    0.2959187924861908    0.2513020932674408 O
   0.7040812373161316    0.0375722348690033    0.2513020932674408 O
   0.9624277949333191    0.6665090322494507    0.2513020932674408 O
   0.6665090322494507    0.7040812373161316    0.7486979365348816 O
   0.2959187924861908    0.9624277949333191    0.7486979365348816 O
   0.0375722348690033    0.3334910273551941    0.7486979365348816 O
   0.0001576840877533    0.6292521357536316    0.5846354365348816 O
   0.3707478940486908    0.3709055781364441    0.5846354365348816 O
   0.6290944814682007    0.9998423457145691    0.5846354365348816 O
