Hf4 Cr6 Ge2
1.0
   5.1374511608946651    0.0000000000000000   -0.0003358896643101
  -2.5684341264510815    4.4493314743520083   -0.0003358896643101
   0.0000000000000000    0.0000000000000000    8.0849523544311523
Ge Hf Cr
2 4 6
direct
   0.0000000000000000    0.0000000000000000    0.0000000000000000 Ge
   0.0000000000000000    0.0000000000000000    0.5000000000000000 Ge
   0.3333333432674408    0.6666666865348816    0.9368896484375000 Hf
   0.6666666269302368    0.3333333134651184    0.4368896484375000 Hf
   0.6666666865348816    0.3333333432674408    0.0631103515625000 Hf
   0.3333333134651184    0.6666666269302368    0.5631103515625000 Hf
   0.6475219726562500    0.8237609863281250    0.2500000000000000 Cr
   0.1762390136718750    0.8237609863281250    0.2500000000000000 Cr
   0.1762390136718750    0.3524780273437500    0.2500000000000000 Cr
   0.3524780273437500    0.1762390136718750    0.7500000000000000 Cr
   0.8237609863281250    0.1762390136718750    0.7500000000000000 Cr
   0.8237609863281250    0.6475219726562500    0.7500000000000000 Cr
