In2 Co4 C2
1.0
   2.6877469959033959    0.0000000000000000   -0.0001757265242882
  -1.3437210187205899    2.3277452046639961   -0.0001757265242882
   0.0000000000000000    0.0000000000000000   12.5913505554199219
C In Co
2 2 4
direct
   0.0000000000000000    0.0000000000000000    0.0000000000000000 C
   0.0000000000000000    0.0000000000000000    0.5000000000000000 C
   0.6666666865348816    0.3333333432674408    0.2500000000000000 In
   0.3333333134651184    0.6666666269302368    0.7500000000000000 In
   0.6666666865348816    0.3333333432674408    0.5726013183593750 Co
   0.3333333134651184    0.6666666269302368    0.0726013183593750 Co
   0.3333333432674408    0.6666666865348816    0.4273986816406250 Co
   0.6666666269302368    0.3333333134651184    0.9273986816406250 Co
