Tm18 Pt24
1.0
  13.2856483175516935    0.0000000000000000   -0.0008686237228866
  -6.6420704474171064   11.5061440712869789   -0.0008686237228866
   0.0000000000000000    0.0000000000000000    5.7793521881103516
Pt Tm Pt
6 18 18
direct
   0.0000000000000000    0.0000000000000000    0.0000000000000000 Pt
   0.6666666865348816    0.3333333432674408    0.3333333432674408 Pt
   0.3333333432674408    0.6666666865348816    0.6666666865348816 Pt
   0.3333333432674408    0.6666666865348816    0.1666666716337204 Pt
   0.6666666269302368    0.3333333134651184    0.8333333134651184 Pt
   0.0000000000000000    0.0000000000000000    0.5000000000000000 Pt
   0.5048370361328125    0.6238327026367188    0.3936767578125000 Tm
   0.3761672973632812    0.8810043334960938    0.3936767578125000 Tm
   0.1189956665039062    0.4951629638671875    0.3936767578125000 Tm
   0.4951629638671875    0.3761672973632812    0.6063232421875000 Tm
   0.6238327026367188    0.1189956665039062    0.6063232421875000 Tm
   0.8810043334960938    0.5048370361328125    0.6063232421875000 Tm
   0.1715037822723389    0.9571660757064819    0.7270101308822632 Tm
   0.0428339838981628    0.2143376767635345    0.7270101308822632 Tm
   0.7856623530387878    0.8284963369369507    0.7270101308822632 Tm
   0.1618296504020691    0.7095006704330444    0.9396566152572632 Tm
   0.2904994487762451    0.4523290097713470    0.9396566152572632 Tm
   0.5476710200309753    0.8381704092025757    0.9396566152572632 Tm
   0.8381704092025757    0.2904994487762451    0.0603435039520264 Tm
   0.7095006704330444    0.5476710200309753    0.0603435039520264 Tm
   0.4523290097713470    0.1618296504020691    0.0603435039520264 Tm
   0.8284963369369507    0.0428339838981628    0.2729899287223816 Tm
   0.9571660757064819    0.7856623530387878    0.2729899287223816 Tm
   0.2143376767635345    0.1715037822723389    0.2729899287223816 Tm
   0.7212677001953125    0.5974731445312500    0.5454101562500000 Pt
   0.4025268554687500    0.1237945556640625    0.5454101562500000 Pt
   0.8762054443359375    0.2787322998046875    0.5454101562500000 Pt
   0.2787322998046875    0.4025268554687500    0.4545898437500000 Pt
   0.5974731445312500    0.8762054443359375    0.4545898437500000 Pt
   0.1237945556640625    0.7212677001953125    0.4545898437500000 Pt
   0.3879344463348389    0.9308065176010132    0.8787435293197632 Pt
   0.0691935420036316    0.4571278989315033    0.8787435293197632 Pt
   0.5428721308708191    0.6120656728744507    0.8787435293197632 Pt
   0.9453989863395691    0.7358602285385132    0.7879232168197632 Pt
   0.2641398906707764    0.2095387876033783    0.7879232168197632 Pt
   0.7904612421989441    0.0546010732650757    0.7879232168197632 Pt
   0.0546010732650757    0.2641398906707764    0.2120769023895264 Pt
   0.7358602285385132    0.7904612421989441    0.2120769023895264 Pt
   0.2095387876033783    0.9453989863395691    0.2120769023895264 Pt
   0.6120656728744507    0.0691935420036316    0.1212565302848816 Pt
   0.9308065176010132    0.5428721308708191    0.1212565302848816 Pt
   0.4571278989315033    0.3879344463348389    0.1212565302848816 Pt
