Ga16 Hg8 Au16
1.0
   6.7880482528563268    0.0000000000000000   -0.0004438067005537
  -0.0004532576913571    6.9321484269392242   -0.0004532280580637
   0.0000000000000000    0.0000000000000000   15.1851520538330078
Hg Ga Au
8 16 16
direct
   0.1250000000000000    0.1250000000000000    0.1250000000000000 Hg
   0.6250000000000000    0.6250000000000000    0.1250000000000000 Hg
   0.6250000000000000    0.1250000000000000    0.6250000000000000 Hg
   0.1250000000000000    0.6250000000000000    0.6250000000000000 Hg
   0.8750000000000000    0.8750000000000000    0.8750000000000000 Hg
   0.3750000000000000    0.3750000000000000    0.8750000000000000 Hg
   0.3750000000000000    0.8750000000000000    0.3750000000000000 Hg
   0.8750000000000000    0.3750000000000000    0.3750000000000000 Hg
   0.1250000000000000    0.1250000000000000    0.3599472045898438 Ga
   0.6250000000000000    0.6250000000000000    0.3599472045898438 Ga
   0.6250000000000000    0.1250000000000000    0.3900527954101562 Ga
   0.1250000000000000    0.6250000000000000    0.3900527954101562 Ga
   0.8750000000000000    0.8750000000000000    0.6400527954101562 Ga
   0.3750000000000000    0.3750000000000000    0.6400527954101562 Ga
   0.3750000000000000    0.8750000000000000    0.6099472045898438 Ga
   0.8750000000000000    0.3750000000000000    0.6099472045898438 Ga
   0.1250000000000000    0.6250000000000000    0.8599472045898438 Ga
   0.6250000000000000    0.1250000000000000    0.8599472045898438 Ga
   0.6250000000000000    0.6250000000000000    0.8900527954101562 Ga
   0.1250000000000000    0.1250000000000000    0.8900527954101562 Ga
   0.8750000000000000    0.3750000000000000    0.1400527954101562 Ga
   0.3750000000000000    0.8750000000000000    0.1400527954101562 Ga
   0.3750000000000000    0.3750000000000000    0.1099472045898438 Ga
   0.8750000000000000    0.8750000000000000    0.1099472045898438 Ga
   0.1250000000000000    0.1250000000000000    0.5310058593750000 Au
   0.6250000000000000    0.6250000000000000    0.5310058593750000 Au
   0.6250000000000000    0.1250000000000000    0.2189941406250000 Au
   0.1250000000000000    0.6250000000000000    0.2189941406250000 Au
   0.8750000000000000    0.8750000000000000    0.4689941406250000 Au
   0.3750000000000000    0.3750000000000000    0.4689941406250000 Au
   0.3750000000000000    0.8750000000000000    0.7810058593750000 Au
   0.8750000000000000    0.3750000000000000    0.7810058593750000 Au
   0.1250000000000000    0.6250000000000000    0.0310058593750000 Au
   0.6250000000000000    0.1250000000000000    0.0310058593750000 Au
   0.6250000000000000    0.6250000000000000    0.7189941406250000 Au
   0.1250000000000000    0.1250000000000000    0.7189941406250000 Au
   0.8750000000000000    0.3750000000000000    0.9689941406250000 Au
   0.3750000000000000    0.8750000000000000    0.9689941406250000 Au
   0.3750000000000000    0.3750000000000000    0.2810058593750000 Au
   0.8750000000000000    0.8750000000000000    0.2810058593750000 Au
