H4 Rh4 Pb4
1.0
   3.4606504366342730    0.0000000000000000   -0.0002262594187374
  -0.0007136465250334   10.9145497809170404   -0.0007135998679170
   0.0000000000000000    0.0000000000000000    4.7182521820068359
H Rh Pb
4 4 4
direct
   0.0000000000000000    0.0108642578125000    0.2500000000000000 H
   0.0000000000000000    0.9891357421875000    0.7500000000000000 H
   0.5000000000000000    0.5108642578125000    0.2500000000000000 H
   0.5000000000000000    0.4891357421875000    0.7500000000000000 H
   0.5000000000000000    0.9272766113281250    0.2500000000000000 Rh
   0.5000000000000000    0.0727233886718750    0.7500000000000000 Rh
   0.0000000000000000    0.4272766113281250    0.2500000000000000 Rh
   0.0000000000000000    0.5727233886718750    0.7500000000000000 Rh
   0.5000000000000000    0.2017822265625000    0.2500000000000000 Pb
   0.5000000000000000    0.7982177734375000    0.7500000000000000 Pb
   0.0000000000000000    0.7017822265625000    0.2500000000000000 Pb
   0.0000000000000000    0.2982177734375000    0.7500000000000000 Pb
