Hf2 V2 Ge2
1.0
   4.0894532116269948    0.0000000000000000   -0.0002673709245006
  -0.0002673884059449    4.0894532028854158   -0.0002673709245006
   0.0000000000000000    0.0000000000000000    7.2465462684631348
V Ge Hf
2 2 2
direct
   0.7500000000000000    0.2500000000000000    0.0000000000000000 V
   0.2500000000000000    0.7500000000000000    0.0000000000000000 V
   0.2500000000000000    0.2500000000000000    0.2534179687500000 Ge
   0.7500000000000000    0.7500000000000000    0.7465820312500000 Ge
   0.7500000000000000    0.7500000000000000    0.3393554687500000 Hf
   0.2500000000000000    0.2500000000000000    0.6606445312500000 Hf
