Al10 Co2
1.0
   4.9486915795501787    0.0000000000000000   -2.0251932212156256
  -1.2344104329898657    5.0637481630010974   -1.6863301336528904
   0.0000000000000000    0.0000000000000000    7.2596483230590820
Al Co
10 2
direct
   0.5437622070312500    0.6553039550781250    0.7656860351562500 Al
   0.6061401367187500    0.3939819335937500    0.0230484008789062 Al
   0.3126831054687500    0.2125244140625000    0.5523681640625000 Al
   0.0884628295898438    0.4750976562500000    0.8472900390625000 Al
   0.8037414550781250    0.4539794921875000    0.4909667968750000 Al
   0.3538208007812500    0.5412597656250000    0.2520751953125000 Al
   0.0929412841796875    0.8576049804687500    0.1390819549560547 Al
   0.9142456054687500    0.0877685546875000    0.9089355468750000 Al
   0.6891174316406250    0.9501342773437500    0.5056610107421875 Al
   0.5613098144531250    0.9473876953125000    0.1065063476562500 Al
   0.9721679687500000    0.2641601562500000    0.2639160156250000 Co
   0.9865722656250000    0.7519531250000000    0.3651123046875000 Co
