Zr9 Cr15 Fe9
1.0
   4.8623485461262002    0.0000000000000000   -0.0003179032889594
  -2.4308984259804607    4.2110766113407738   -0.0003179032889594
   0.0000000000000000    0.0000000000000000   23.1368522644042969
Cr Zr Cr Fe
6 9 9 9
direct
   0.0000000000000000    0.0000000000000000    0.7528686523437500 Cr
   0.6666666865348816    0.3333333432674408    0.0862020254135132 Cr
   0.3333333432674408    0.6666666865348816    0.4195353984832764 Cr
   0.0000000000000000    0.0000000000000000    0.2459716796875000 Cr
   0.6666666865348816    0.3333333432674408    0.5793050527572632 Cr
   0.3333333432674408    0.6666666865348816    0.9126383662223816 Cr
   0.0000000000000000    0.0000000000000000    0.0573577880859375 Zr
   0.6666666865348816    0.3333333432674408    0.3906911313533783 Zr
   0.3333333432674408    0.6666666865348816    0.7240244746208191 Zr
   0.0000000000000000    0.0000000000000000    0.4479370117187500 Zr
   0.6666666865348816    0.3333333432674408    0.7812703847885132 Zr
   0.3333333432674408    0.6666666865348816    0.1146037578582764 Zr
   0.0000000000000000    0.0000000000000000    0.9314651489257812 Zr
   0.6666666865348816    0.3333333432674408    0.2647985219955444 Zr
   0.3333333432674408    0.6666666865348816    0.5981318950653076 Zr
   0.6690673828125000    0.8345336914062500    0.3293457031250000 Cr
   0.1654663085937500    0.8345336914062500    0.3293457031250000 Cr
   0.1654663085937500    0.3309326171875000    0.3293457031250000 Cr
   0.3357341289520264    0.1678670644760132    0.6626790761947632 Cr
   0.8321329951286316    0.1678670346736908    0.6626790761947632 Cr
   0.8321329951286316    0.6642659902572632    0.6626790761947632 Cr
   0.0024007558822632    0.5012004375457764    0.9960123896598816 Cr
   0.4987996816635132    0.5012003779411316    0.9960123896598816 Cr
   0.4987996518611908    0.9975993037223816    0.9960123896598816 Cr
   0.8345642089843750    0.6691284179687500    0.1627807617187500 Fe
   0.3308715820312500    0.1654357910156250    0.1627807617187500 Fe
   0.8345642089843750    0.1654357910156250    0.1627807617187500 Fe
   0.5012309551239014    0.0024617910385132    0.4961141049861908 Fe
   0.9975382685661316    0.4987691342830658    0.4961141049861908 Fe
   0.5012308955192566    0.4987691640853882    0.4961141049861908 Fe
   0.1678975820541382    0.3357951641082764    0.8294474482536316 Fe
   0.6642049551010132    0.8321024775505066    0.8294474482536316 Fe
   0.1678975522518158    0.8321024775505066    0.8294474482536316 Fe
