Pr2 Cu2 Ge2
1.0
   4.3121509459837846    0.0000000000000000   -0.0002819310370726
  -2.1558308393036518    3.7345734928176419   -0.0002819310370726
   0.0000000000000000    0.0000000000000000    7.2072472572326660
Pr Cu Ge
2 2 2
direct
   0.0000000000000000    0.0000000000000000    0.0000000000000000 Pr
   0.0000000000000000    0.0000000000000000    0.5000000000000000 Pr
   0.3333333432674408    0.6666666865348816    0.2500000000000000 Cu
   0.6666666269302368    0.3333333134651184    0.7500000000000000 Cu
   0.6666666865348816    0.3333333432674408    0.2500000000000000 Ge
   0.3333333134651184    0.6666666269302368    0.7500000000000000 Ge
