Pr3 Mg3 Pd3
1.0
   7.8229479622533100    0.0000000000000000   -0.0005114690695179
  -3.9110301755556320    6.7751278796799479   -0.0005114690695179
   0.0000000000000000    0.0000000000000000    4.0501508712768555
Pd Mg Pr
3 3 3
direct
   0.0000000000000000    0.0000000000000000    0.5000000000000000 Pd
   0.6666666865348816    0.3333333432674408    0.0000000000000000 Pd
   0.3333333432674408    0.6666666865348816    0.0000000000000000 Pd
   0.2390747070312500    0.0000000000000000    0.0000000000000000 Mg
   0.0000000000000000    0.2390747070312500    0.0000000000000000 Mg
   0.7609252929687500    0.7609252929687500    0.0000000000000000 Mg
   0.4086303710937500    0.4086303710937500    0.5000000000000000 Pr
   0.5913696289062500    0.0000000000000000    0.5000000000000000 Pr
   0.0000000000000000    0.5913696289062500    0.5000000000000000 Pr
