Tc2 Si2 B4 N2
1.0
   2.9628496106718614    0.0000000000000000   -0.0001937128996388
  -1.4812567191912107    2.5660000676752315   -0.0001937128996388
   0.0000000000000000    0.0000000000000000   13.4821500778198242
Tc N Si B
2 2 2 4
direct
   0.0000000000000000    0.0000000000000000    0.0000000000000000 Tc
   0.0000000000000000    0.0000000000000000    0.5000000000000000 Tc
   0.0000000000000000    0.0000000000000000    0.2500000000000000 N
   0.0000000000000000    0.0000000000000000    0.7500000000000000 N
   0.3333333432674408    0.6666666865348816    0.2500000000000000 Si
   0.6666666269302368    0.3333333134651184    0.7500000000000000 Si
   0.3333333432674408    0.6666666865348816    0.5944824218750000 B
   0.6666666269302368    0.3333333134651184    0.0944824218750000 B
   0.6666666865348816    0.3333333432674408    0.4055175781250000 B
   0.3333333134651184    0.6666666269302368    0.9055175781250000 B
