Ho4 Cd2 Ni4
1.0
   6.4474501472000139    0.0000000000000000   -0.0004215381903936
  -0.0004215657517165    6.4474501334180010   -0.0004215381903936
   0.0000000000000000    0.0000000000000000    3.5654520988464355
Cd Ni Ho
2 4 4
direct
   0.0000000000000000    0.0000000000000000    0.0000000000000000 Cd
   0.5000000000000000    0.5000000000000000    0.0000000000000000 Cd
   0.3741607666015625    0.1258392333984375    0.0000000000000000 Ni
   0.6258392333984375    0.8741607666015625    0.0000000000000000 Ni
   0.8741607666015625    0.3741607666015625    0.0000000000000000 Ni
   0.1258392333984375    0.6258392333984375    0.0000000000000000 Ni
   0.1771850585937500    0.3228149414062500    0.5000000000000000 Ho
   0.8228149414062500    0.6771850585937500    0.5000000000000000 Ho
   0.6771850585937500    0.1771850585937500    0.5000000000000000 Ho
   0.3228149414062500    0.8228149414062500    0.5000000000000000 Ho
