Al6 Cd3 O12
1.0
   2.8973505435053344    0.0000000000000000   -0.0001894305310101
  -1.4485109014515201    2.5092740664038198   -0.0001894305310101
   0.0000000000000000    0.0000000000000000   29.3331489562988281
Cd O Al
3 12 6
direct
   0.0000000000000000    0.0000000000000000    0.0000000000000000 Cd
   0.6666666865348816    0.3333333432674408    0.3333333432674408 Cd
   0.3333333432674408    0.6666666865348816    0.6666666865348816 Cd
   0.3333333432674408    0.6666666865348816    0.9456481933593750 O
   0.6666666865348816    0.3333333432674408    0.0543518066406250 O
   0.0000000000000000    0.0000000000000000    0.2789815664291382 O
   0.3333333730697632    0.6666666865348816    0.3876851797103882 O
   0.6666666865348816    0.3333333730697632    0.6123149394989014 O
   0.0000000000000000    0.0000000000000000    0.7210184931755066 O
   0.6666666865348816    0.3333333432674408    0.1940307617187500 O
   0.3333333432674408    0.6666666865348816    0.8059692382812500 O
   0.3333333730697632    0.6666666865348816    0.5273641347885132 O
   0.0000000000000000    0.0000000000000000    0.1393025815486908 O
   0.0000000000000000    0.0000000000000000    0.8606974482536316 O
   0.6666666865348816    0.3333333730697632    0.4726359248161316 O
   0.3333333432674408    0.6666666865348816    0.8825683593750000 Al
   0.6666666865348816    0.3333333432674408    0.1174316406250000 Al
   0.0000000000000000    0.0000000000000000    0.2159017324447632 Al
   0.3333333730697632    0.6666666865348816    0.4507650136947632 Al
   0.6666666865348816    0.3333333730697632    0.5492351055145264 Al
   0.0000000000000000    0.0000000000000000    0.7840983271598816 Al
