Hf2 Co1 Cu2 Ni1 Ge4
1.0
   3.8143505968585298    0.0000000000000000   -0.0002493845491500
  -0.0002494008545957    3.8143505887050075   -0.0002493845491500
   0.0000000000000000    0.0000000000000000   10.7573509216308594
Cu Ni Co Cu Ge Hf
1 1 1 1 4 2
direct
   0.0000000000000000    0.0000000000000000    0.0000000000000000 Cu
   0.5000000000000000    0.5000000000000000    0.0000000000000000 Ni
   0.5000000000000000    0.5000000000000000    0.5000000000000000 Co
   0.0000000000000000    0.0000000000000000    0.5000000000000000 Cu
   0.0000000000000000    0.5000000000000000    0.1275634765625000 Ge
   0.5000000000000000    0.0000000000000000    0.8724365234375000 Ge
   0.0000000000000000    0.5000000000000000    0.3669433593750000 Ge
   0.5000000000000000    0.0000000000000000    0.6330566406250000 Ge
   0.5000000000000000    0.0000000000000000    0.2452354431152344 Hf
   0.0000000000000000    0.5000000000000000    0.7547645568847656 Hf
