Co2 W4 N12
1.0
   8.9281227582164551    0.0000000000000000   -3.8157667350917546
  -0.0003077255078568    3.1069462080549415   -0.0002031340233296
   0.0000000000000000    0.0000000000000000    8.1766519546508789
Co N W
2 12 4
direct
   0.0000000000000000    0.0000000000000000    0.0000000000000000 Co
   0.5000000000000000    0.5000000000000000    0.0000000000000000 Co
   0.3170166015625000    0.0000000000000000    0.3863830566406250 N
   0.6829833984375000    0.0000000000000000    0.6136169433593750 N
   0.8170166015625000    0.5000000000000000    0.3863830566406250 N
   0.1829833984375000    0.5000000000000000    0.6136169433593750 N
   0.4816894531250000    0.0000000000000000    0.8010253906250000 N
   0.5183105468750000    0.0000000000000000    0.1989746093750000 N
   0.9816894531250000    0.5000000000000000    0.8010253906250000 N
   0.0183105468750000    0.5000000000000000    0.1989746093750000 N
   0.3201904296875000    0.0000000000000000    0.9262695312500000 N
   0.6798095703125000    0.0000000000000000    0.0737304687500000 N
   0.8201904296875000    0.5000000000000000    0.9262695312500000 N
   0.1798095703125000    0.5000000000000000    0.0737304687500000 N
   0.3314208984375000    0.0000000000000000    0.1874389648437500 W
   0.6685791015625000    0.0000000000000000    0.8125610351562500 W
   0.8314208984375000    0.5000000000000000    0.1874389648437500 W
   0.1685791015625000    0.5000000000000000    0.8125610351562500 W
