Li8 O10
1.0
   6.3033494814618587    0.0000000000000000   -0.0004121168017077
  -0.0004121437470344    6.3033494679878741   -0.0004121168017077
   0.0000000000000000    0.0000000000000000    4.1287517547607422
O Li O
2 8 8
direct
   0.0000000000000000    0.0000000000000000    0.0000000000000000 O
   0.5000000000000000    0.5000000000000000    0.5000000000000000 O
   0.1079101562500000    0.2919387817382812    0.0000000000000000 Li
   0.8920898437500000    0.7080612182617188    0.0000000000000000 Li
   0.7080612182617188    0.1079101562500000    0.0000000000000000 Li
   0.2919387817382812    0.8920898437500000    0.0000000000000000 Li
   0.6079101562500000    0.7919387817382812    0.5000000000000000 Li
   0.3920898437500000    0.2080612182617188    0.5000000000000000 Li
   0.2080612182617188    0.6079101562500000    0.5000000000000000 Li
   0.7919387817382812    0.3920898437500000    0.5000000000000000 Li
   0.3913192749023438    0.1870117187500000    0.0000000000000000 O
   0.6086807250976562    0.8129882812500000    0.0000000000000000 O
   0.8129882812500000    0.3913192749023438    0.0000000000000000 O
   0.1870117187500000    0.6086807250976562    0.0000000000000000 O
   0.8913192749023438    0.6870117187500000    0.5000000000000000 O
   0.1086807250976562    0.3129882812500000    0.5000000000000000 O
   0.3129882812500000    0.8913192749023438    0.5000000000000000 O
   0.6870117187500000    0.1086807250976562    0.5000000000000000 O
