Ce2 Al16 Fe8
1.0
   8.7923526575996025    0.0000000000000000   -0.0005748493348485
  -0.0005748869200745    8.7923526388051467   -0.0005748493348485
   0.0000000000000000    0.0000000000000000    5.2946500778198242
Ce Fe Al
2 8 16
direct
   0.0000000000000000    0.0000000000000000    0.0000000000000000 Ce
   0.5000000000000000    0.5000000000000000    0.5000000000000000 Ce
   0.2500000000000000    0.2500000000000000    0.2500000000000000 Fe
   0.7500000000000000    0.7500000000000000    0.2500000000000000 Fe
   0.7500000000000000    0.2500000000000000    0.2500000000000000 Fe
   0.2500000000000000    0.7500000000000000    0.2500000000000000 Fe
   0.7500000000000000    0.2500000000000000    0.7500000000000000 Fe
   0.2500000000000000    0.7500000000000000    0.7500000000000000 Fe
   0.2500000000000000    0.2500000000000000    0.7500000000000000 Fe
   0.7500000000000000    0.7500000000000000    0.7500000000000000 Fe
   0.0000000000000000    0.3469238281250000    0.0000000000000000 Al
   0.0000000000000000    0.6530761718750000    0.0000000000000000 Al
   0.6530761718750000    0.0000000000000000    0.0000000000000000 Al
   0.3469238281250000    0.0000000000000000    0.0000000000000000 Al
   0.5000000000000000    0.8469238281250000    0.5000000000000000 Al
   0.5000000000000000    0.1530761718750000    0.5000000000000000 Al
   0.1530761718750000    0.5000000000000000    0.5000000000000000 Al
   0.8469238281250000    0.5000000000000000    0.5000000000000000 Al
   0.2714843750000000    0.5000000000000000    0.0000000000000000 Al
   0.7285156250000000    0.5000000000000000    0.0000000000000000 Al
   0.5000000000000000    0.2714843750000000    0.0000000000000000 Al
   0.5000000000000000    0.7285156250000000    0.0000000000000000 Al
   0.7714843750000000    0.0000000000000000    0.5000000000000000 Al
   0.2285156250000000    0.0000000000000000    0.5000000000000000 Al
   0.0000000000000000    0.7714843750000000    0.5000000000000000 Al
   0.0000000000000000    0.2285156250000000    0.5000000000000000 Al
