Ge2 Te6 As3
1.0
   4.2859506515451535    0.0000000000000000   -0.0002802180459748
  -2.1427321784596374    3.7118825141528853   -0.0002802180459748
   0.0000000000000000    0.0000000000000000   24.8660488128662109
As Ge As Te
1 2 2 6
direct
   0.0000000000000000    0.0000000000000000    0.5000000000000000 As
   0.0000000000000000    0.0000000000000000    0.3254394531250000 Ge
   0.0000000000000000    0.0000000000000000    0.6745605468750000 Ge
   0.6666666865348816    0.3333333432674408    0.1455078125000000 As
   0.3333333432674408    0.6666666865348816    0.8544921875000000 As
   0.6666666865348816    0.3333333432674408    0.4168395996093750 Te
   0.3333333432674408    0.6666666865348816    0.5831604003906250 Te
   0.6666666865348816    0.3333333432674408    0.9210815429687500 Te
   0.3333333432674408    0.6666666865348816    0.0789184570312500 Te
   0.6666666865348816    0.3333333432674408    0.7399902343750000 Te
   0.3333333432674408    0.6666666865348816    0.2600097656250000 Te
