Al2 Ga6 Te8
1.0
  17.2720180300882689    0.0000000000000000   -4.4310851557200612
  -0.0003081921246286    3.6571516782638471   -0.0002391067896188
   0.0000000000000000    0.0000000000000000    8.2683515548706055
Al Ga Te
2 6 8
direct
   0.3735351562500000    0.0000000000000000    0.5671386718750000 Al
   0.8735351562500000    0.5000000000000000    0.5671386718750000 Al
   0.3238220214843750    0.0000000000000000    0.0169677734375000 Ga
   0.8238220214843750    0.5000000000000000    0.0169677734375000 Ga
   0.7529296875000000    0.0000000000000000    0.4115753173828125 Ga
   0.2529296875000000    0.5000000000000000    0.4115753173828125 Ga
   0.0336914062500000    0.0000000000000000    0.6077270507812500 Ga
   0.5336914062500000    0.5000000000000000    0.6077270507812500 Ga
   0.2108154296875000    0.0000000000000000    0.6142578125000000 Te
   0.7108154296875000    0.5000000000000000    0.6142578125000000 Te
   0.9221572875976562    0.0000000000000000    0.8242187500000000 Te
   0.4221572875976562    0.5000000000000000    0.8242187500000000 Te
   0.4506835937500000    0.0000000000000000    0.3203125000000000 Te
   0.9506835937500000    0.5000000000000000    0.3203125000000000 Te
   0.7233276367187500    0.0000000000000000    0.0828857421875000 Te
   0.2233276367187500    0.5000000000000000    0.0828857421875000 Te
