Na4 Re4 O16
1.0
   5.7400498267514992    0.0000000000000000   -0.0003752879295684
  -0.0003753124669224    5.7400498144816190   -0.0003752879295684
   0.0000000000000000    0.0000000000000000   10.6787490844726562
Na Re O
4 4 16
direct
   0.0000000000000000    0.7500000000000000    0.1250000000000000 Na
   0.5000000000000000    0.2500000000000000    0.6250000000000000 Na
   0.5000000000000000    0.7500000000000000    0.3750000000000000 Na
   0.0000000000000000    0.2500000000000000    0.8750000000000000 Na
   0.5000000000000000    0.2500000000000000    0.1250000000000000 Re
   0.0000000000000000    0.7500000000000000    0.6250000000000000 Re
   0.0000000000000000    0.2500000000000000    0.3750000000000000 Re
   0.5000000000000000    0.7500000000000000    0.8750000000000000 Re
   0.0000000000000000    0.4854125976562500    0.2832031250000000 O
   0.5000000000000000    0.5145874023437500    0.7832031250000000 O
   0.7645874023437500    0.7500000000000000    0.5332031250000000 O
   0.7354125976562500    0.2500000000000000    0.0332031250000000 O
   0.5000000000000000    0.4854125976562500    0.2167968750000000 O
   0.0000000000000000    0.5145874023437500    0.7167968750000000 O
   0.7354125976562500    0.7500000000000000    0.9667968750000000 O
   0.7645874023437500    0.2500000000000000    0.4667968750000000 O
   0.2354125976562500    0.2500000000000000    0.4667968750000000 O
   0.2645874023437500    0.7500000000000000    0.9667968750000000 O
   0.2645874023437500    0.2500000000000000    0.0332031250000000 O
   0.2354125976562500    0.7500000000000000    0.5332031250000000 O
   0.5000000000000000    0.9854125976562500    0.7832031250000000 O
   0.0000000000000000    0.0145874023437500    0.2832031250000000 O
   0.0000000000000000    0.9854125976562500    0.7167968750000000 O
   0.5000000000000000    0.0145874023437500    0.2167968750000000 O
