Tl3 Bi3 O9
1.0
   7.1679487075192139    0.0000000000000000   -0.0004686448220641
  -3.5835677071112393    6.2078604335290812   -0.0004686448220641
   0.0000000000000000    0.0000000000000000    7.7181501388549805
Tl Bi O
3 3 9
direct
   0.0000000000000000    0.0000000000000000    0.4867134094238281 Tl
   0.6666666865348816    0.3333333432674408    0.8200467824935913 Tl
   0.3333333432674408    0.6666666865348816    0.1533801555633545 Tl
   0.6666666865348816    0.3333333432674408    0.3692321777343750 Bi
   0.3333333730697632    0.6666666865348816    0.7025655508041382 Bi
   0.0000000000000000    0.0000000000000000    0.0358989238739014 Bi
   0.0748291015625000    0.5800476074218750    0.8831176757812500 O
   0.4199523925781250    0.4947814941406250    0.8831176757812500 O
   0.5052185058593750    0.9251708984375000    0.8831176757812500 O
   0.7414957880973816    0.9133809804916382    0.2164510488510132 O
   0.0866190791130066    0.8281148672103882    0.2164510488510132 O
   0.1718852519989014    0.2585042417049408    0.2164510488510132 O
   0.4081624448299408    0.2467143535614014    0.5497844219207764 O
   0.7532857656478882    0.1614481806755066    0.5497844219207764 O
   0.8385518789291382    0.5918375849723816    0.5497844219207764 O
