Ba2 Sr2 Nd2 Cu4 O11
1.0
   3.6178491038245353    0.0000000000000000   -0.0002365371626806
  -0.0002365526281290    3.6178490960910530   -0.0002365371626806
   0.0000000000000000    0.0000000000000000   17.7920513153076172
O Nd O Cu Sr O Cu Ba O
1 2 2 2 2 4 2 2 4
direct
   0.0000000000000000    0.0000000000000000    0.0000000000000000 O
   0.5000000000000000    0.5000000000000000    0.0000000000000000 Nd
   0.5000000000000000    0.5000000000000000    0.5000000000000000 Nd
   0.0000000000000000    0.0000000000000000    0.8166503906250000 O
   0.0000000000000000    0.0000000000000000    0.1833496093750000 O
   0.0000000000000000    0.0000000000000000    0.1026611328125000 Cu
   0.0000000000000000    0.0000000000000000    0.8973388671875000 Cu
   0.0000000000000000    0.0000000000000000    0.6973876953125000 Sr
   0.0000000000000000    0.0000000000000000    0.3026123046875000 Sr
   0.5000000000000000    0.5000000000000000    0.7469482421875000 O
   0.5000000000000000    0.5000000000000000    0.2530517578125000 O
   0.5000000000000000    0.5000000000000000    0.0956749916076660 O
   0.5000000000000000    0.5000000000000000    0.9043250083923340 O
   0.5000000000000000    0.5000000000000000    0.1771240234375000 Cu
   0.5000000000000000    0.5000000000000000    0.8228759765625000 Cu
   0.5000000000000000    0.5000000000000000    0.3622436523437500 Ba
   0.5000000000000000    0.5000000000000000    0.6377563476562500 Ba
   0.0000000000000000    0.5000000000000000    0.5798416137695312 O
   0.5000000000000000    0.0000000000000000    0.5798416137695312 O
   0.0000000000000000    0.5000000000000000    0.4201583862304688 O
   0.5000000000000000    0.0000000000000000    0.4201583862304688 O
