Mg2 Ga4 I2
1.0
   3.3165497708961182    0.0000000000000000   -0.0002168380300515
  -1.6580867334531844    2.8723249758997751   -0.0002168380300515
   0.0000000000000000    0.0000000000000000   18.1064529418945312
Mg I Ga
2 2 4
direct
   0.0000000000000000    0.0000000000000000    0.0000000000000000 Mg
   0.0000000000000000    0.0000000000000000    0.5000000000000000 Mg
   0.3333333432674408    0.6666666865348816    0.2500000000000000 I
   0.6666666269302368    0.3333333134651184    0.7500000000000000 I
   0.6666666865348816    0.3333333432674408    0.1146774291992188 Ga
   0.3333333134651184    0.6666666269302368    0.6146774291992188 Ga
   0.3333333432674408    0.6666666865348816    0.8853225708007812 Ga
   0.6666666269302368    0.3333333134651184    0.3853225708007812 Ga
