Te4 Mo3 S1
1.0
   3.3951473163519101    0.0000000000000000   -0.0002219767851134
  -1.6973810472445374    2.9403950211130843   -0.0002219767851134
   0.0000000000000000    0.0000000000000000   28.4161453247070312
Mo S Mo Te
1 1 2 4
direct
   0.3333333432674408    0.6666666865348816    0.0000000000000000 Mo
   0.3333333432674408    0.6666666865348816    0.5000000000000000 S
   0.0000000000000000    0.0000000000000000    0.7790527343750000 Mo
   0.0000000000000000    0.0000000000000000    0.2209472656250000 Mo
   0.3333333432674408    0.6666666865348816    0.2892379760742188 Te
   0.3333333432674408    0.6666666865348816    0.7107620239257812 Te
   0.3333333432674408    0.6666666865348816    0.8477935791015625 Te
   0.3333333432674408    0.6666666865348816    0.1522064208984375 Te
