Zn2 Cd2 Cu2 Ge2 Te8
1.0
   5.4518527868096047    0.0000000000000000   -0.0003564454327797
  -0.0003564687381596    5.4518527751557722   -0.0003564454327797
   0.0000000000000000    0.0000000000000000   11.0979490280151367
Cu Ge Zn Cd Te
2 2 2 2 8
direct
   0.0000000000000000    0.0000000000000000    0.0000000000000000 Cu
   0.5000000000000000    0.5000000000000000    0.5000000000000000 Cu
   0.0000000000000000    0.0000000000000000    0.5000000000000000 Ge
   0.5000000000000000    0.5000000000000000    0.0000000000000000 Ge
   0.0000000000000000    0.5000000000000000    0.2500000000000000 Zn
   0.5000000000000000    0.0000000000000000    0.7500000000000000 Zn
   0.5000000000000000    0.0000000000000000    0.2500000000000000 Cd
   0.0000000000000000    0.5000000000000000    0.7500000000000000 Cd
   0.2643127441406250    0.2396240234375000    0.6134033203125000 Te
   0.7356872558593750    0.7603759765625000    0.6134033203125000 Te
   0.2396240234375000    0.7356872558593750    0.3865966796875000 Te
   0.7603759765625000    0.2643127441406250    0.3865966796875000 Te
   0.7643127441406250    0.7396240234375000    0.1134033203125000 Te
   0.2356872558593750    0.2603759765625000    0.1134033203125000 Te
   0.7396240234375000    0.2356872558593750    0.8865966796875000 Te
   0.2603759765625000    0.7643127441406250    0.8865966796875000 Te
