Mn2 F4
1.0
   4.7051539320517737    0.0000000000000000   -0.0003076258100114
  -0.0003076459234305    4.7051539219940777   -0.0003076258100114
   0.0000000000000000    0.0000000000000000    3.2248501777648926
Mn F
2 4
direct
   0.0000000000000000    0.0000000000000000    0.0000000000000000 Mn
   0.5000000000000000    0.5000000000000000    0.5000000000000000 Mn
   0.6894226074218750    0.6894226074218750    0.0000000000000000 F
   0.3105773925781250    0.3105773925781250    0.0000000000000000 F
   0.8105773925781250    0.1894226074218750    0.5000000000000000 F
   0.1894226074218750    0.8105773925781250    0.5000000000000000 F
