Li8 Mn4 O16
1.0
   5.7007474777449243    0.0000000000000000   -0.0003727183182181
  -0.0003821646610681    5.8448476541520273   -0.0003821396757281
   0.0000000000000000    0.0000000000000000    7.8753490447998047
Mn Li O
4 8 16
direct
   0.0000000000000000    0.0000000000000000    0.5000000000000000 Mn
   0.0000000000000000    0.5000000000000000    0.5000000000000000 Mn
   0.5000000000000000    0.5000000000000000    0.0000000000000000 Mn
   0.5000000000000000    0.0000000000000000    0.0000000000000000 Mn
   0.2500000000000000    0.2500000000000000    0.7500000000000000 Li
   0.7500000000000000    0.2500000000000000    0.7500000000000000 Li
   0.7500000000000000    0.7500000000000000    0.2500000000000000 Li
   0.2500000000000000    0.7500000000000000    0.2500000000000000 Li
   0.0000000000000000    0.2500000000000000    0.1373291015625000 Li
   0.0000000000000000    0.7500000000000000    0.8626708984375000 Li
   0.5000000000000000    0.7500000000000000    0.6373291015625000 Li
   0.5000000000000000    0.2500000000000000    0.3626708984375000 Li
   0.0000000000000000    0.4850158691406250    0.7224197387695312 O
   0.0000000000000000    0.0149841308593750    0.7224197387695312 O
   0.0000000000000000    0.9850158691406250    0.2775802612304688 O
   0.0000000000000000    0.5149841308593750    0.2775802612304688 O
   0.5000000000000000    0.9850158691406250    0.2224197387695312 O
   0.5000000000000000    0.5149841308593750    0.2224197387695312 O
   0.5000000000000000    0.4850158691406250    0.7775802612304688 O
   0.5000000000000000    0.0149841308593750    0.7775802612304688 O
   0.7857055664062500    0.2500000000000000    0.4993896484375000 O
   0.2142944335937500    0.2500000000000000    0.4993896484375000 O
   0.2142944335937500    0.7500000000000000    0.5006103515625000 O
   0.7857055664062500    0.7500000000000000    0.5006103515625000 O
   0.2857055664062500    0.7500000000000000    0.9993896484375000 O
   0.7142944335937500    0.7500000000000000    0.9993896484375000 O
   0.7142944335937500    0.2500000000000000    0.0006103515625000 O
   0.2857055664062500    0.2500000000000000    0.0006103515625000 O
