Cd2 Se1 S2
1.0
   4.2335538773651500    0.0000000000000000   -0.0002767923131865
  -2.1165367639038259    3.6665038605730418   -0.0002767923131865
   0.0000000000000000    0.0000000000000000    6.3819508552551270
S Cd S Se Cd
1 1 1 1 1
direct
   0.0000000000000000    0.0000000000000000    0.5155258178710938 S
   0.0000000000000000    0.0000000000000000    0.9907226562500000 Cd
   0.3333333432674408    0.6666666865348816    0.1923828125000000 S
   0.6666666865348816    0.3333333432674408    0.8149414062500000 Se
   0.6666666865348816    0.3333333432674408    0.3882751464843750 Cd
