Cs4 Mg4 Cr4 F20
1.0
   7.0500488130568479    0.0000000000000000   -0.0004609364556519
  -0.0004840932041606    7.4037484806177600   -0.0004840615548886
   0.0000000000000000    0.0000000000000000   10.4298515319824219
Cr Mg F Cs F
4 4 4 4 16
direct
   0.0000000000000000    0.0000000000000000    0.0000000000000000 Cr
   0.0000000000000000    0.5000000000000000    0.0000000000000000 Cr
   0.5000000000000000    0.5000000000000000    0.5000000000000000 Cr
   0.5000000000000000    0.0000000000000000    0.5000000000000000 Cr
   0.2500000000000000    0.2500000000000000    0.2500000000000000 Mg
   0.7500000000000000    0.2500000000000000    0.2500000000000000 Mg
   0.7500000000000000    0.7500000000000000    0.7500000000000000 Mg
   0.2500000000000000    0.7500000000000000    0.7500000000000000 Mg
   0.0000000000000000    0.2500000000000000    0.3237915039062500 F
   0.0000000000000000    0.7500000000000000    0.6762084960937500 F
   0.5000000000000000    0.7500000000000000    0.8237915039062500 F
   0.5000000000000000    0.2500000000000000    0.1762084960937500 F
   0.0000000000000000    0.2500000000000000    0.6219863891601562 Cs
   0.0000000000000000    0.7500000000000000    0.3780136108398438 Cs
   0.5000000000000000    0.7500000000000000    0.1219863891601562 Cs
   0.5000000000000000    0.2500000000000000    0.8780136108398438 Cs
   0.6936340332031250    0.4573669433593750    0.3746948242187500 F
   0.3063659667968750    0.0426330566406250    0.3746948242187500 F
   0.3063659667968750    0.9573669433593750    0.6253051757812500 F
   0.6936340332031250    0.5426330566406250    0.6253051757812500 F
   0.3063659667968750    0.5426330566406250    0.6253051757812500 F
   0.6936340332031250    0.9573669433593750    0.6253051757812500 F
   0.6936340332031250    0.0426330566406250    0.3746948242187500 F
   0.3063659667968750    0.4573669433593750    0.3746948242187500 F
   0.1936340332031250    0.9573669433593750    0.8746948242187500 F
   0.8063659667968750    0.5426330566406250    0.8746948242187500 F
   0.8063659667968750    0.4573669433593750    0.1253051757812500 F
   0.1936340332031250    0.0426330566406250    0.1253051757812500 F
   0.8063659667968750    0.0426330566406250    0.1253051757812500 F
   0.1936340332031250    0.4573669433593750    0.1253051757812500 F
   0.1936340332031250    0.5426330566406250    0.8746948242187500 F
   0.8063659667968750    0.9573669433593750    0.8746948242187500 F
