V3 O6 F2
1.0
   4.9498760675368931    0.0000000000000000   -1.6029412304836967
  -0.9005185938117674    5.2703819597456167   -0.0556434484534555
   0.0000000000000000    0.0000000000000000    6.0020503997802734
O F V
6 2 3
direct
   0.7392578125000000    0.4619140625000000    0.9736938476562500 O
   0.8144531250000000    0.9151000976562500    0.2286376953125000 O
   0.2055664062500000    0.6015625000000000    0.4409179687500000 O
   0.8171386718750000    0.2119865417480469    0.6264038085937500 O
   0.6823730468750000    0.7430267333984375    0.6149291992187500 O
   0.4835205078125000    0.2883911132812500    0.3254394531250000 O
   0.3398437500000000    0.1080322265625000    0.6875610351562500 F
   0.2291259765625000    0.8593750000000000    0.0771484375000000 F
   0.5539245605468750    0.9641723632812500    0.3914794921875000 V
   0.5575561523437500    0.4087524414062500    0.6381225585937500 V
   0.9583683013916016    0.6530761718750000    0.1965942382812500 V
