Tb4 Dy16 Ni8 Sb4
1.0
   7.8098497223826229    0.0000000000000000   -0.0005106126986726
  -0.0005106460839312    7.8098497056883565   -0.0005106126986726
   0.0000000000000000    0.0000000000000000   13.4690475463867188
Sb Tb Ni Dy
4 4 8 16
direct
   0.0000000000000000    0.0000000000000000    0.2500000000000000 Sb
   0.0000000000000000    0.0000000000000000    0.7500000000000000 Sb
   0.5000000000000000    0.5000000000000000    0.7500000000000000 Sb
   0.5000000000000000    0.5000000000000000    0.2500000000000000 Sb
   0.0000000000000000    0.0000000000000000    0.0000000000000000 Tb
   0.0000000000000000    0.0000000000000000    0.5000000000000000 Tb
   0.5000000000000000    0.5000000000000000    0.5000000000000000 Tb
   0.5000000000000000    0.5000000000000000    0.0000000000000000 Tb
   0.1263427734375000    0.3736572265625000    0.0000000000000000 Ni
   0.8736572265625000    0.6263427734375000    0.0000000000000000 Ni
   0.6263427734375000    0.1263427734375000    0.0000000000000000 Ni
   0.3736572265625000    0.8736572265625000    0.0000000000000000 Ni
   0.8736572265625000    0.3736572265625000    0.5000000000000000 Ni
   0.1263427734375000    0.6263427734375000    0.5000000000000000 Ni
   0.3736572265625000    0.1263427734375000    0.5000000000000000 Ni
   0.6263427734375000    0.8736572265625000    0.5000000000000000 Ni
   0.3432922363281250    0.1567077636718750    0.8633117675781250 Dy
   0.6567077636718750    0.8432922363281250    0.8633117675781250 Dy
   0.8432922363281250    0.3432922363281250    0.8633117675781250 Dy
   0.1567077636718750    0.6567077636718750    0.8633117675781250 Dy
   0.6567077636718750    0.1567077636718750    0.6366882324218750 Dy
   0.3432922363281250    0.8432922363281250    0.6366882324218750 Dy
   0.1567077636718750    0.3432922363281250    0.6366882324218750 Dy
   0.8432922363281250    0.6567077636718750    0.6366882324218750 Dy
   0.6567077636718750    0.8432922363281250    0.1366882324218750 Dy
   0.3432922363281250    0.1567077636718750    0.1366882324218750 Dy
   0.1567077636718750    0.6567077636718750    0.1366882324218750 Dy
   0.8432922363281250    0.3432922363281250    0.1366882324218750 Dy
   0.3432922363281250    0.8432922363281250    0.3633117675781250 Dy
   0.6567077636718750    0.1567077636718750    0.3633117675781250 Dy
   0.8432922363281250    0.6567077636718750    0.3633117675781250 Dy
   0.1567077636718750    0.3432922363281250    0.3633117675781250 Dy
