Li6 Cr2 Co2 O10
1.0
   4.8864035796229546    0.0000000000000000   -1.1484576966928444
  -1.8144636959029461    4.9858661928088335   -1.2536182591814677
   0.0000000000000000    0.0000000000000000    7.4168510437011719
Li O Cr Co
6 10 2 2
direct
   0.2070007324218750    0.9064941406250000    0.8917846679687500 Li
   0.7929992675781250    0.0935058593750000    0.1082153320312500 Li
   0.1144409179687500    0.3957977294921875    0.4665374755859375 Li
   0.8855590820312500    0.6042022705078125    0.5334625244140625 Li
   0.4754028320312500    0.6103515625000000    0.1160888671875000 Li
   0.5245971679687500    0.3896484375000000    0.8839111328125000 Li
   0.1715087890625000    0.2888183593750000    0.0217285156250000 O
   0.8284912109375000    0.7111816406250000    0.9782714843750000 O
   0.6018066406250000    0.3526611328125000    0.5965576171875000 O
   0.3981933593750000    0.6473388671875000    0.4034423828125000 O
   0.2202148437500000    0.5469360351562500    0.7448425292968750 O
   0.7797851562500000    0.4530639648437500    0.2551574707031250 O
   0.9202880859375000    0.9284973144531250    0.6467285156250000 O
   0.0797119140625000    0.0715026855468750    0.3532714843750000 O
   0.5972900390625000    0.0577850341796875    0.8360214233398438 O
   0.4027099609375000    0.9422149658203125    0.1639785766601562 O
   0.4119873046875000    0.2768554687500000    0.3086853027343750 Cr
   0.5880126953125000    0.7231445312500000    0.6913146972656250 Cr
   0.9326782226562500    0.2790527343750000    0.7809677124023438 Co
   0.0673217773437500    0.7209472656250000    0.2190322875976562 Co
