Li4 Mg2 Ni4 O8
1.0
   6.2902512415911724    0.0000000000000000   -0.0004112604308624
  -0.0003650340665811    5.5828513860459612   -0.0003650102012131
   0.0000000000000000    0.0000000000000000    5.0457515716552734
O Mg Ni Li O
4 2 4 4 4
direct
   0.0000000000000000    0.4359130859375000    0.6688842773437500 O
   0.5000000000000000    0.5640869140625000    0.1688842773437500 O
   0.0000000000000000    0.6469707489013672    0.1911621093750000 O
   0.5000000000000000    0.3530292510986328    0.6911621093750000 O
   0.5000000000000000    0.8405456542968750    0.9155883789062500 Mg
   0.0000000000000000    0.1594543457031250    0.4155883789062500 Mg
   0.5000000000000000    0.2724609375000000    0.0317993164062500 Ni
   0.0000000000000000    0.7275390625000000    0.5317993164062500 Ni
   0.0000000000000000    0.9376831054687500    0.9577636718750000 Ni
   0.5000000000000000    0.0623168945312500    0.4577636718750000 Ni
   0.7965698242187500    0.4637298583984375    0.9482727050781250 Li
   0.7034301757812500    0.5362701416015625    0.4482727050781250 Li
   0.2965698242187500    0.5362701416015625    0.4482727050781250 Li
   0.2034301757812500    0.4637298583984375    0.9482727050781250 Li
   0.7449951171875000    0.1161804199218750    0.1486206054687500 O
   0.7550048828125000    0.8838195800781250    0.6486206054687500 O
   0.2449951171875000    0.8838195800781250    0.6486206054687500 O
   0.2550048828125000    0.1161804199218750    0.1486206054687500 O
