Li2 W6 O20
1.0
   5.1505496129539869    0.0000000000000000   -0.0016851019772002
  -0.0005656129983045    8.6482524502024933   -0.0005654279773385
   0.0000000000000000    0.0000000000000000    8.5958518981933594
Li W O
2 6 20
direct
   0.5000000000000000    0.0014038085937500    0.0000000000000000 Li
   0.0000000000000000    0.5014038085937500    0.0000000000000000 Li
   0.0000000000000000    0.0052185058593750    0.0000000000000000 W
   0.5000000000000000    0.5052185058593750    0.0000000000000000 W
   0.0000000000000000    0.7672119140625000    0.0000000000000000 W
   0.5000000000000000    0.2672119140625000    0.0000000000000000 W
   0.5000000000000000    0.7416381835937500    0.0000000000000000 W
   0.0000000000000000    0.2416381835937500    0.0000000000000000 W
   0.6942138671875000    0.3355712890625000    0.8554687500000000 O
   0.3057861328125000    0.3355712890625000    0.1445312500000000 O
   0.1942138671875000    0.8355712890625000    0.8554687500000000 O
   0.8057861328125000    0.8355712890625000    0.1445312500000000 O
   0.7937011718750000    0.3658142089843750    0.1193847656250000 O
   0.2062988281250000    0.3658142089843750    0.8806152343750000 O
   0.2937011718750000    0.8658142089843750    0.1193847656250000 O
   0.7062988281250000    0.8658142089843750    0.8806152343750000 O
   0.8423843383789062    0.1170654296875000    0.8307495117187500 O
   0.1576156616210938    0.1170654296875000    0.1692504882812500 O
   0.3423843383789062    0.6170654296875000    0.8307495117187500 O
   0.6576156616210938    0.6170654296875000    0.1692504882812500 O
   0.2168273925781250    0.6123046875000000    0.1134643554687500 O
   0.7831726074218750    0.6123046875000000    0.8865356445312500 O
   0.7168273925781250    0.1123046875000000    0.1134643554687500 O
   0.2831726074218750    0.1123046875000000    0.8865356445312500 O
   0.1420898437500000    0.8336181640625000    0.4900512695312500 O
   0.8579101562500000    0.8336181640625000    0.5099487304687500 O
   0.6420898437500000    0.3336181640625000    0.4900512695312500 O
   0.3579101562500000    0.3336181640625000    0.5099487304687500 O
