Lu10 In6
1.0
   8.8054504206331323    0.0000000000000000   -0.0005757056745179
  -4.4022256661586736    7.6260321461715623   -0.0005757056745179
   0.0000000000000000    0.0000000000000000    5.9889483451843262
Lu In Lu
4 6 6
direct
   0.6666666865348816    0.3333333432674408    0.0000000000000000 Lu
   0.3333333134651184    0.6666666269302368    0.5000000000000000 Lu
   0.3333333134651184    0.6666666269302368    0.0000000000000000 Lu
   0.6666666865348816    0.3333333432674408    0.5000000000000000 Lu
   0.3872070312500000    0.0000000000000000    0.2500000000000000 In
   0.0000000000000000    0.3872070312500000    0.2500000000000000 In
   0.6127929687500000    0.6127929687500000    0.2500000000000000 In
   0.6127929687500000    0.0000000000000000    0.7500000000000000 In
   0.0000000000000000    0.6127929687500000    0.7500000000000000 In
   0.3872070312500000    0.3872070312500000    0.7500000000000000 In
   0.7539062500000000    0.0000000000000000    0.2500000000000000 Lu
   0.0000000000000000    0.7539062500000000    0.2500000000000000 Lu
   0.2460937500000000    0.2460937500000000    0.2500000000000000 Lu
   0.2460937500000000    0.0000000000000000    0.7500000000000000 Lu
   0.0000000000000000    0.2460937500000000    0.7500000000000000 Lu
   0.7539062500000000    0.7539062500000000    0.7500000000000000 Lu
