Mo2 W1 Se1 S5
1.0
   3.4868469163756459    0.0000000000000000   -0.0002279721604279
  -1.7432256450240056    3.0198122075336062   -0.0002279721604279
   0.0000000000000000    0.0000000000000000   29.7654514312744141
S Mo S Se W
2 2 3 1 1
direct
   0.0000000000000000    0.0000000000000000    0.2792358398437500 S
   0.0000000000000000    0.0000000000000000    0.3813514709472656 S
   0.0000000000000000    0.0000000000000000    0.5511474609375000 Mo
   0.0000000000000000    0.0000000000000000    0.0955810546875000 Mo
   0.3333333432674408    0.6666666865348816    0.6057739257812500 S
   0.3333333432674408    0.6666666865348816    0.0420837402343750 S
   0.3333333432674408    0.6666666865348816    0.1432495117187500 S
   0.3333333432674408    0.6666666865348816    0.5044555664062500 Se
   0.3333333432674408    0.6666666865348816    0.3304443359375000 W
