Sr8 La4 Bi4 O24
1.0
   8.3993501483687716    0.0000000000000000   -0.0005491545930856
  -0.0005491904983190    8.3993501304143940   -0.0005491545930856
   0.0000000000000000    0.0000000000000000    8.3993501663208008
Bi La Sr O
4 4 8 24
direct
   0.0000000000000000    0.0000000000000000    0.0000000000000000 Bi
   0.0000000000000000    0.5000000000000000    0.5000000000000000 Bi
   0.5000000000000000    0.0000000000000000    0.5000000000000000 Bi
   0.5000000000000000    0.5000000000000000    0.0000000000000000 Bi
   0.5000000000000000    0.0000000000000000    0.0000000000000000 La
   0.0000000000000000    0.5000000000000000    0.0000000000000000 La
   0.0000000000000000    0.0000000000000000    0.5000000000000000 La
   0.5000000000000000    0.5000000000000000    0.5000000000000000 La
   0.2500000000000000    0.2500000000000000    0.2500000000000000 Sr
   0.7500000000000000    0.7500000000000000    0.2500000000000000 Sr
   0.7500000000000000    0.2500000000000000    0.7500000000000000 Sr
   0.2500000000000000    0.7500000000000000    0.7500000000000000 Sr
   0.2500000000000000    0.2500000000000000    0.7500000000000000 Sr
   0.7500000000000000    0.7500000000000000    0.7500000000000000 Sr
   0.7500000000000000    0.2500000000000000    0.2500000000000000 Sr
   0.2500000000000000    0.7500000000000000    0.2500000000000000 Sr
   0.7540283203125000    0.0000000000000000    0.0000000000000000 O
   0.2459716796875000    0.0000000000000000    0.0000000000000000 O
   0.0000000000000000    0.7540283203125000    0.0000000000000000 O
   0.0000000000000000    0.2459716796875000    0.0000000000000000 O
   0.0000000000000000    0.0000000000000000    0.7540283203125000 O
   0.0000000000000000    0.0000000000000000    0.2459716796875000 O
   0.7540283203125000    0.5000000000000000    0.5000000000000000 O
   0.2459716796875000    0.5000000000000000    0.5000000000000000 O
   0.0000000000000000    0.2540283203125000    0.5000000000000000 O
   0.0000000000000000    0.7459716796875000    0.5000000000000000 O
   0.0000000000000000    0.5000000000000000    0.2540283203125000 O
   0.0000000000000000    0.5000000000000000    0.7459716796875000 O
   0.2540283203125000    0.0000000000000000    0.5000000000000000 O
   0.7459716796875000    0.0000000000000000    0.5000000000000000 O
   0.5000000000000000    0.7540283203125000    0.5000000000000000 O
   0.5000000000000000    0.2459716796875000    0.5000000000000000 O
   0.5000000000000000    0.0000000000000000    0.2540283203125000 O
   0.5000000000000000    0.0000000000000000    0.7459716796875000 O
   0.2540283203125000    0.5000000000000000    0.0000000000000000 O
   0.7459716796875000    0.5000000000000000    0.0000000000000000 O
   0.5000000000000000    0.2540283203125000    0.0000000000000000 O
   0.5000000000000000    0.7459716796875000    0.0000000000000000 O
   0.5000000000000000    0.5000000000000000    0.7540283203125000 O
   0.5000000000000000    0.5000000000000000    0.2459716796875000 O
