Li2 Ni4 O8
1.0
   4.8475819474819550    0.0000000000000000   -3.3583466203525805
  -2.7629665892779580    5.4607437552262583   -0.0092126747500217
   0.0000000000000000    0.0000000000000000   10.9538526535034180
Ni Li O Ni
2 2 8 2
direct
   0.0000000000000000    0.0000000000000000    0.0000000000000000 Ni
   0.5000000000000000    0.0000000000000000    0.0000000000000000 Ni
   0.0000000000000000    0.5000000000000000    0.5000000000000000 Li
   0.5000000000000000    0.5000000000000000    0.5000000000000000 Li
   0.3631896972656250    0.0442352294921875    0.1236572265625000 O
   0.6368103027343750    0.9557647705078125    0.8763427734375000 O
   0.2100830078125000    0.1210937500000000    0.8364868164062500 O
   0.7899169921875000    0.8789062500000000    0.1635131835937500 O
   0.7916374206542969    0.2348937988281250    0.5663146972656250 O
   0.2083625793457031    0.7651062011718750    0.4336853027343750 O
   0.6533355712890625    0.5854492187500000    0.3743896484375000 O
   0.3466644287109375    0.4145507812500000    0.6256103515625000 O
   0.1317901611328125    0.2071533203125000    0.6646118164062500 Ni
   0.8682098388671875    0.7928466796875000    0.3353881835937500 Ni
