Dy8 Ru4 Rh4
1.0
   6.9583492130331122    0.0000000000000000   -0.0004549410803374
  -0.0004549708256329    6.9583491981590058   -0.0004549410803374
   0.0000000000000000    0.0000000000000000    6.9583492279052734
Ru Rh Dy
4 4 8
direct
   0.0000000000000000    0.0000000000000000    0.0000000000000000 Ru
   0.0000000000000000    0.5000000000000000    0.5000000000000000 Ru
   0.5000000000000000    0.0000000000000000    0.5000000000000000 Ru
   0.5000000000000000    0.5000000000000000    0.0000000000000000 Ru
   0.5000000000000000    0.0000000000000000    0.0000000000000000 Rh
   0.0000000000000000    0.5000000000000000    0.0000000000000000 Rh
   0.0000000000000000    0.0000000000000000    0.5000000000000000 Rh
   0.5000000000000000    0.5000000000000000    0.5000000000000000 Rh
   0.2500000000000000    0.2500000000000000    0.2500000000000000 Dy
   0.7500000000000000    0.7500000000000000    0.2500000000000000 Dy
   0.7500000000000000    0.2500000000000000    0.7500000000000000 Dy
   0.2500000000000000    0.7500000000000000    0.7500000000000000 Dy
   0.2500000000000000    0.2500000000000000    0.7500000000000000 Dy
   0.7500000000000000    0.7500000000000000    0.7500000000000000 Dy
   0.2500000000000000    0.7500000000000000    0.2500000000000000 Dy
   0.7500000000000000    0.2500000000000000    0.2500000000000000 Dy
