Yb4 Eu4 Au8
1.0
   7.3120488964202117    0.0000000000000000   -0.0004780661795741
  -0.0004780974368520    7.3120488807900399   -0.0004780661795741
   0.0000000000000000    0.0000000000000000    7.3120489120483398
Yb Eu Au
4 4 8
direct
   0.0000000000000000    0.0000000000000000    0.0000000000000000 Yb
   0.0000000000000000    0.5000000000000000    0.5000000000000000 Yb
   0.5000000000000000    0.0000000000000000    0.5000000000000000 Yb
   0.5000000000000000    0.5000000000000000    0.0000000000000000 Yb
   0.5000000000000000    0.0000000000000000    0.0000000000000000 Eu
   0.0000000000000000    0.5000000000000000    0.0000000000000000 Eu
   0.0000000000000000    0.0000000000000000    0.5000000000000000 Eu
   0.5000000000000000    0.5000000000000000    0.5000000000000000 Eu
   0.2500000000000000    0.2500000000000000    0.2500000000000000 Au
   0.7500000000000000    0.7500000000000000    0.2500000000000000 Au
   0.7500000000000000    0.2500000000000000    0.7500000000000000 Au
   0.2500000000000000    0.7500000000000000    0.7500000000000000 Au
   0.2500000000000000    0.2500000000000000    0.7500000000000000 Au
   0.7500000000000000    0.7500000000000000    0.7500000000000000 Au
   0.2500000000000000    0.7500000000000000    0.2500000000000000 Au
   0.7500000000000000    0.2500000000000000    0.2500000000000000 Au
