U2 Bi8
1.0
   3.9322504913208967    0.0000000000000000   -0.0002570929155622
  -0.0003710298338896    5.6745509858736805   -0.0003710055765275
   0.0000000000000000    0.0000000000000000   12.2900476455688477
Bi U
8 2
direct
   0.5000000000000000    0.0000000000000000    0.3031005859375000 Bi
   0.0000000000000000    0.5000000000000000    0.8031005859375000 Bi
   0.5000000000000000    0.0000000000000000    0.9177246093750000 Bi
   0.0000000000000000    0.5000000000000000    0.4177246093750000 Bi
   0.0000000000000000    0.5000000000000000    0.0098876953125000 Bi
   0.5000000000000000    0.0000000000000000    0.5098876953125000 Bi
   0.0000000000000000    0.5000000000000000    0.2030944824218750 Bi
   0.5000000000000000    0.0000000000000000    0.7030944824218750 Bi
   0.5000000000000000    0.0000000000000000    0.1058044433593750 U
   0.0000000000000000    0.5000000000000000    0.6058044433593750 U
