La2 Co1 Ni2 Ge4
1.0
   3.9191484367529523    0.0000000000000000   -0.0002562362953097
  -0.0002562530487414    3.9191484283754150   -0.0002562362953097
   0.0000000000000000    0.0000000000000000    9.6307506561279297
Ni Co Ge La
2 1 4 2
direct
   0.5000000000000000    0.5000000000000000    0.0000000000000000 Ni
   0.5000000000000000    0.5000000000000000    0.5000000000000000 Ni
   0.0000000000000000    0.0000000000000000    0.5000000000000000 Co
   0.5000000000000000    0.0000000000000000    0.8920745849609375 Ge
   0.0000000000000000    0.5000000000000000    0.1079254150390625 Ge
   0.0000000000000000    0.5000000000000000    0.3764648437500000 Ge
   0.5000000000000000    0.0000000000000000    0.6235351562500000 Ge
   0.5000000000000000    0.0000000000000000    0.2407226562500000 La
   0.0000000000000000    0.5000000000000000    0.7592773437500000 La
