Mg12 Zn3 Cd3 O24
1.0
   3.0021483833997569    0.0000000000000000   -0.0001962822771698
  -1.5009038760868871    2.6000350902818856   -0.0001962822771698
   0.0000000000000000    0.0000000000000000   45.9308509826660156
Cd Zn O Mg
3 3 24 12
direct
   0.0000000000000000    0.0000000000000000    0.0000000000000000 Cd
   0.6666666865348816    0.3333333432674408    0.3333333432674408 Cd
   0.3333333432674408    0.6666666865348816    0.6666666865348816 Cd
   0.3333333432674408    0.6666666865348816    0.1666666716337204 Zn
   0.6666666865348816    0.3333333432674408    0.8333333134651184 Zn
   0.0000000000000000    0.0000000000000000    0.5000000000000000 Zn
   0.3333333432674408    0.6666666865348816    0.4778442382812500 O
   0.6666666865348816    0.3333333432674408    0.5221557617187500 O
   0.0000000000000000    0.0000000000000000    0.8111776113510132 O
   0.3333333730697632    0.6666666865348816    0.8554891347885132 O
   0.6666666865348816    0.3333333730697632    0.1445109844207764 O
   0.0000000000000000    0.0000000000000000    0.1888224482536316 O
   0.6666666865348816    0.3333333432674408    0.0203247070312500 O
   0.3333333432674408    0.6666666865348816    0.9796752929687500 O
   0.3333333730697632    0.6666666865348816    0.3536580502986908 O
   0.0000000000000000    0.0000000000000000    0.3130086362361908 O
   0.0000000000000000    0.0000000000000000    0.6869913935661316 O
   0.6666666865348816    0.3333333730697632    0.6463419795036316 O
   0.3333333432674408    0.6666666865348816    0.7306671142578125 O
   0.6666666865348816    0.3333333432674408    0.2693328857421875 O
   0.0000000000000000    0.0000000000000000    0.0640004873275757 O
   0.3333333730697632    0.6666666865348816    0.6026662588119507 O
   0.6666666865348816    0.3333333730697632    0.3973338603973389 O
   0.0000000000000000    0.0000000000000000    0.9359995722770691 O
   0.0000000000000000    0.0000000000000000    0.5668334960937500 O
   0.0000000000000000    0.0000000000000000    0.4331665039062500 O
   0.6666666865348816    0.3333333432674408    0.9001668691635132 O
   0.6666666865348816    0.3333333432674408    0.7664998769760132 O
   0.3333333432674408    0.6666666865348816    0.2335002422332764 O
   0.3333333432674408    0.6666666865348816    0.0998331904411316 O
   0.6666666865348816    0.3333333432674408    0.0630187988281250 Mg
   0.3333333432674408    0.6666666865348816    0.9369812011718750 Mg
   0.3333333730697632    0.6666666865348816    0.3963521420955658 Mg
   0.0000000000000000    0.0000000000000000    0.2703145444393158 Mg
   0.0000000000000000    0.0000000000000000    0.7296854853630066 Mg
   0.6666666865348816    0.3333333730697632    0.6036478877067566 Mg
   0.3333333432674408    0.6666666865348816    0.7881469726562500 Mg
   0.6666666865348816    0.3333333432674408    0.2118530273437500 Mg
   0.0000000000000000    0.0000000000000000    0.1214803457260132 Mg
   0.3333333730697632    0.6666666865348816    0.5451864004135132 Mg
   0.6666666865348816    0.3333333730697632    0.4548137187957764 Mg
   0.0000000000000000    0.0000000000000000    0.8785197138786316 Mg
