Nd24 Co12 Sn2
1.0
   9.8272533206709003    0.0000000000000000   -0.0006425117661645
  -0.0006425537753458    9.8272532996642497   -0.0006425117661645
   0.0000000000000000    0.0000000000000000    9.8272533416748047
Sn Co Nd
2 12 24
direct
   0.0000000000000000    0.0000000000000000    0.0000000000000000 Sn
   0.5000000000000000    0.5000000000000000    0.5000000000000000 Sn
   0.5000000000000000    0.3920898437500000    0.0000000000000000 Co
   0.5000000000000000    0.6079101562500000    0.0000000000000000 Co
   0.0000000000000000    0.5000000000000000    0.3920898437500000 Co
   0.0000000000000000    0.5000000000000000    0.6079101562500000 Co
   0.3920898437500000    0.0000000000000000    0.5000000000000000 Co
   0.6079101562500000    0.0000000000000000    0.5000000000000000 Co
   0.0000000000000000    0.8920898437500000    0.5000000000000000 Co
   0.0000000000000000    0.1079101562500000    0.5000000000000000 Co
   0.5000000000000000    0.0000000000000000    0.8920898437500000 Co
   0.5000000000000000    0.0000000000000000    0.1079101562500000 Co
   0.8920898437500000    0.5000000000000000    0.0000000000000000 Co
   0.1079101562500000    0.5000000000000000    0.0000000000000000 Co
   0.5000000000000000    0.1923828125000000    0.6925048828125000 Nd
   0.5000000000000000    0.8076171875000000    0.6925048828125000 Nd
   0.5000000000000000    0.1923828125000000    0.3074951171875000 Nd
   0.5000000000000000    0.8076171875000000    0.3074951171875000 Nd
   0.6925048828125000    0.5000000000000000    0.1923828125000000 Nd
   0.6925048828125000    0.5000000000000000    0.8076171875000000 Nd
   0.3074951171875000    0.5000000000000000    0.1923828125000000 Nd
   0.3074951171875000    0.5000000000000000    0.8076171875000000 Nd
   0.1923828125000000    0.6925048828125000    0.5000000000000000 Nd
   0.8076171875000000    0.6925048828125000    0.5000000000000000 Nd
   0.1923828125000000    0.3074951171875000    0.5000000000000000 Nd
   0.8076171875000000    0.3074951171875000    0.5000000000000000 Nd
   0.0000000000000000    0.6923828125000000    0.1925048828125000 Nd
   0.0000000000000000    0.3076171875000000    0.1925048828125000 Nd
   0.0000000000000000    0.6923828125000000    0.8074951171875000 Nd
   0.0000000000000000    0.3076171875000000    0.8074951171875000 Nd
   0.1925048828125000    0.0000000000000000    0.6923828125000000 Nd
   0.1925048828125000    0.0000000000000000    0.3076171875000000 Nd
   0.8074951171875000    0.0000000000000000    0.6923828125000000 Nd
   0.8074951171875000    0.0000000000000000    0.3076171875000000 Nd
   0.6923828125000000    0.1925048828125000    0.0000000000000000 Nd
   0.3076171875000000    0.1925048828125000    0.0000000000000000 Nd
   0.6923828125000000    0.8074951171875000    0.0000000000000000 Nd
   0.3076171875000000    0.8074951171875000    0.0000000000000000 Nd
