Ca4 Sn4
1.0
   7.2858486019815807    0.0000000000000000   -0.0004763531884763
  -0.0002836625735948    4.3383512311487928   -0.0002836440281704
   0.0000000000000000    0.0000000000000000    7.8622508049011230
Ca Sn
4 4
direct
   0.5330352783203125    0.2500000000000000    0.6693115234375000 Ca
   0.9669647216796875    0.7500000000000000    0.1693115234375000 Ca
   0.4669647216796875    0.7500000000000000    0.3306884765625000 Ca
   0.0330352783203125    0.2500000000000000    0.8306884765625000 Ca
   0.1553878784179688    0.2500000000000000    0.4286651611328125 Sn
   0.3446121215820312    0.7500000000000000    0.9286651611328125 Sn
   0.8446121215820312    0.7500000000000000    0.5713348388671875 Sn
   0.6553878784179688    0.2500000000000000    0.0713348388671875 Sn
