Ca4 Co2 Ir2 O12
1.0
   4.5886308973511376    0.0000000000000000   -3.1338208000952448
  -0.0007123848861876    5.7531480225165739   -0.0003761443004136
   0.0000000000000000    0.0000000000000000    9.6176490783691406
Ir Co O Ca
2 2 12 4
direct
   0.5000000000000000    0.0000000000000000    0.0000000000000000 Ir
   0.5000000000000000    0.5000000000000000    0.5000000000000000 Ir
   0.0000000000000000    0.0000000000000000    0.5000000000000000 Co
   0.0000000000000000    0.5000000000000000    0.0000000000000000 Co
   0.1602172851562500    0.3067016601562500    0.4574584960937500 O
   0.8397827148437500    0.8067016601562500    0.0425415039062500 O
   0.8397827148437500    0.6932983398437500    0.5425415039062500 O
   0.1602172851562500    0.1932983398437500    0.9574584960937500 O
   0.3493347167968750    0.0349426269531250    0.7527465820312500 O
   0.6506652832031250    0.5349426269531250    0.7472534179687500 O
   0.6506652832031250    0.9650573730468750    0.2472534179687500 O
   0.3493347167968750    0.4650573730468750    0.2527465820312500 O
   0.7333145141601562    0.2857055664062500    0.0542907714843750 O
   0.2666854858398438    0.7857055664062500    0.4457092285156250 O
   0.2666854858398438    0.7142944335937500    0.9457092285156250 O
   0.7333145141601562    0.2142944335937500    0.5542907714843750 O
   0.7689819335937500    0.5569458007812500    0.2541503906250000 Ca
   0.2310180664062500    0.0569458007812500    0.2458496093750000 Ca
   0.2310180664062500    0.4430541992187500    0.7458496093750000 Ca
   0.7689819335937500    0.9430541992187500    0.7541503906250000 Ca
