Cr6 In2
1.0
   4.7051539320517737    0.0000000000000000   -0.0003076258100114
  -0.0003076459234305    4.7051539219940777   -0.0003076258100114
   0.0000000000000000    0.0000000000000000    4.7051539421081543
In Cr
2 6
direct
   0.0000000000000000    0.0000000000000000    0.0000000000000000 In
   0.5000000000000000    0.5000000000000000    0.5000000000000000 In
   0.5000000000000000    0.2500000000000000    0.0000000000000000 Cr
   0.5000000000000000    0.7500000000000000    0.0000000000000000 Cr
   0.0000000000000000    0.5000000000000000    0.2500000000000000 Cr
   0.0000000000000000    0.5000000000000000    0.7500000000000000 Cr
   0.2500000000000000    0.0000000000000000    0.5000000000000000 Cr
   0.7500000000000000    0.0000000000000000    0.5000000000000000 Cr
