Nb4 Co8 Ge4
1.0
   6.1592492925608617    0.0000000000000000   -0.0004026954441977
  -0.0004027217735302    6.1592492793949045   -0.0004026954441977
   0.0000000000000000    0.0000000000000000    6.1592493057250977
Nb Ge Co
4 4 8
direct
   0.0000000000000000    0.0000000000000000    0.0000000000000000 Nb
   0.0000000000000000    0.5000000000000000    0.5000000000000000 Nb
   0.5000000000000000    0.0000000000000000    0.5000000000000000 Nb
   0.5000000000000000    0.5000000000000000    0.0000000000000000 Nb
   0.5000000000000000    0.0000000000000000    0.0000000000000000 Ge
   0.0000000000000000    0.5000000000000000    0.0000000000000000 Ge
   0.0000000000000000    0.0000000000000000    0.5000000000000000 Ge
   0.5000000000000000    0.5000000000000000    0.5000000000000000 Ge
   0.2500000000000000    0.2500000000000000    0.2500000000000000 Co
   0.7500000000000000    0.7500000000000000    0.2500000000000000 Co
   0.7500000000000000    0.2500000000000000    0.7500000000000000 Co
   0.2500000000000000    0.7500000000000000    0.7500000000000000 Co
   0.2500000000000000    0.2500000000000000    0.7500000000000000 Co
   0.7500000000000000    0.7500000000000000    0.7500000000000000 Co
   0.2500000000000000    0.7500000000000000    0.2500000000000000 Co
   0.7500000000000000    0.2500000000000000    0.2500000000000000 Co
