Ca2 Tb2 Ga4 O4
1.0
   6.0937499869757561    0.0000000000000000   -0.0003984130599810
  -0.0005920175769175    9.0543498605855248   -0.0005919788717153
   0.0000000000000000    0.0000000000000000    2.8580517768859863
Ca Tb Ga O
2 2 4 4
direct
   0.0000000000000000    0.5000000000000000    0.0000000000000000 Ca
   0.5000000000000000    0.0000000000000000    0.0000000000000000 Ca
   0.0000000000000000    0.5000000000000000    0.5000000000000000 Tb
   0.5000000000000000    0.0000000000000000    0.5000000000000000 Tb
   0.2500000000000000    0.2500000000000000    0.5000000000000000 Ga
   0.7500000000000000    0.7500000000000000    0.5000000000000000 Ga
   0.7500000000000000    0.2500000000000000    0.5000000000000000 Ga
   0.2500000000000000    0.7500000000000000    0.5000000000000000 Ga
   0.0000000000000000    0.7156124114990234    0.0000000000000000 O
   0.0000000000000000    0.2843875885009766    0.0000000000000000 O
   0.5000000000000000    0.2156124114990234    0.0000000000000000 O
   0.5000000000000000    0.7843875885009766    0.0000000000000000 O
