Re6 O18
1.0
   5.0719523321467168    0.0000000000000000   -0.0003316073112693
  -2.5356884279071541    4.3926056795649515   -0.0003316073112693
   0.0000000000000000    0.0000000000000000   13.5476493835449219
Re O
6 18
direct
   0.0000000000000000    0.0000000000000000    0.0000000000000000 Re
   0.0000000000000000    0.0000000000000000    0.5000000000000000 Re
   0.6666666865348816    0.3333333432674408    0.3333333432674408 Re
   0.6666666865348816    0.3333333432674408    0.8333333134651184 Re
   0.3333333432674408    0.6666666865348816    0.6666666865348816 Re
   0.3333333432674408    0.6666666865348816    0.1666666269302368 Re
   0.0809631347656250    0.3333333432674408    0.0833333358168602 O
   0.6666666269302368    0.7476297616958618    0.0833333358168602 O
   0.2523702085018158    0.9190368652343750    0.0833333358168602 O
   0.3333333432674408    0.0809631347656250    0.4166666567325592 O
   0.7476297616958618    0.6666666269302368    0.4166666567325592 O
   0.9190368652343750    0.2523702085018158    0.4166666567325592 O
   0.9190368652343750    0.6666666269302368    0.9166666865348816 O
   0.3333333432674408    0.2523702085018158    0.9166666865348816 O
   0.7476297616958618    0.0809631347656250    0.9166666865348816 O
   0.6666666269302368    0.9190368652343750    0.5833333134651184 O
   0.2523702085018158    0.3333333432674408    0.5833333134651184 O
   0.0809631347656250    0.7476297616958618    0.5833333134651184 O
   0.0000000000000000    0.4142964780330658    0.7500000000000000 O
   0.4142964780330658    0.0000000000000000    0.7500000000000000 O
   0.5857035517692566    0.5857035517692566    0.7500000000000000 O
   0.5857035517692566    0.0000000000000000    0.2500000000000000 O
   0.0000000000000000    0.5857035517692566    0.2500000000000000 O
   0.4142964780330658    0.4142964780330658    0.2500000000000000 O
