Y3 Co18 Ni18 B18
1.0
   9.5521497522281216    0.0000000000000000   -0.0006245253284621
  -4.7755329707740612    8.2727171917116600   -0.0006245253284621
   0.0000000000000000    0.0000000000000000    7.3644499778747559
Y Ni B Co
3 18 18 18
direct
   0.0000000000000000    0.0000000000000000    0.0000000000000000 Y
   0.6666666865348816    0.3333333432674408    0.3333333432674408 Y
   0.3333333432674408    0.6666666865348816    0.6666666865348816 Y
   0.3333333432674408    0.2975463867187500    0.1666666716337204 Ni
   0.7024536132812500    0.0357869565486908    0.1666666716337204 Ni
   0.9642130136489868    0.6666666269302368    0.1666666716337204 Ni
   0.2975463867187500    0.3333333432674408    0.8333333134651184 Ni
   0.0357869565486908    0.7024536132812500    0.8333333134651184 Ni
   0.6666666269302368    0.9642130136489868    0.8333333134651184 Ni
   0.6666666269302368    0.7024536132812500    0.8333333134651184 Ni
   0.2975463867187500    0.9642130136489868    0.8333333134651184 Ni
   0.0357869565486908    0.3333333432674408    0.8333333134651184 Ni
   0.7024536132812500    0.6666666269302368    0.1666666716337204 Ni
   0.9642130136489868    0.2975463867187500    0.1666666716337204 Ni
   0.3333333432674408    0.0357869565486908    0.1666666716337204 Ni
   0.0000000000000000    0.6308797597885132    0.5000000000000000 Ni
   0.3691202998161316    0.3691202998161316    0.5000000000000000 Ni
   0.6308797597885132    0.0000000000000000    0.5000000000000000 Ni
   0.3691202998161316    0.0000000000000000    0.5000000000000000 Ni
   0.6308797597885132    0.6308797597885132    0.5000000000000000 Ni
   0.0000000000000000    0.3691202998161316    0.5000000000000000 Ni
   0.5188446044921875    0.0376892089843750    0.7132253646850586 B
   0.9623107910156250    0.4811553955078125    0.7132253646850586 B
   0.5188446044921875    0.4811553955078125    0.7132253646850586 B
   0.0376892089843750    0.5188446044921875    0.2867746353149414 B
   0.4811553955078125    0.9623107910156250    0.2867746353149414 B
   0.4811553955078125    0.5188446044921875    0.2867746353149414 B
   0.1855113506317139    0.3710225522518158    0.0465587377548218 B
   0.6289774775505066    0.8144887685775757    0.0465587377548218 B
   0.1855112910270691    0.8144887685775757    0.0465587377548218 B
   0.7043558955192566    0.8521779775619507    0.6201080083847046 B
   0.1478221416473389    0.2956441342830658    0.6201080083847046 B
   0.1478220820426941    0.8521779775619507    0.6201080083847046 B
   0.8521779775619507    0.7043558955192566    0.3798921108245850 B
   0.2956441342830658    0.1478221416473389    0.3798921108245850 B
   0.8521779775619507    0.1478220820426941    0.3798921108245850 B
   0.3710225522518158    0.1855113506317139    0.9534413218498230 B
   0.8144887685775757    0.6289774775505066    0.9534413218498230 B
   0.8144887685775757    0.1855112910270691    0.9534413218498230 B
   0.1793823242187500    0.0896911621093750    0.6284790039062500 Co
   0.9103088378906250    0.0896911621093750    0.6284790039062500 Co
   0.9103088378906250    0.8206176757812500    0.6284790039062500 Co
   0.0896911621093750    0.1793823242187500    0.3715209960937500 Co
   0.0896911621093750    0.9103088378906250    0.3715209960937500 Co
   0.8206176757812500    0.9103088378906250    0.3715209960937500 Co
   0.8460490107536316    0.4230245053768158    0.9618123769760132 Co
   0.5769755244255066    0.4230245053768158    0.9618123769760132 Co
   0.5769755244255066    0.1539510190486908    0.9618123769760132 Co
   0.7563578486442566    0.5127156972885132    0.7048543691635132 Co
   0.7563578486442566    0.2436421811580658    0.7048543691635132 Co
   0.4872843623161316    0.2436421811580658    0.7048543691635132 Co
   0.5127156972885132    0.7563578486442566    0.2951457500457764 Co
   0.2436421811580658    0.7563578486442566    0.2951457500457764 Co
   0.2436421811580658    0.4872843623161316    0.2951457500457764 Co
   0.4230245053768158    0.8460490107536316    0.0381876826286316 Co
   0.4230245053768158    0.5769755244255066    0.0381876826286316 Co
   0.1539510190486908    0.5769755244255066    0.0381876826286316 Co
