K1 Sr1 Pd3 S2
1.0
   5.6614484665984497    0.0000000000000000   -0.0003701489250992
  -2.8304030522838763    4.9031436142103830   -0.0003701489250992
   0.0000000000000000    0.0000000000000000    5.1898484230041504
Sr S K S Pd
1 1 1 1 3
direct
   0.0000000000000000    0.0000000000000000    0.0000000000000000 Sr
   0.3333333432674408    0.6666666865348816    0.0000000000000000 S
   0.3333333432674408    0.6666666865348816    0.5000000000000000 K
   0.6666666865348816    0.3333333432674408    0.0000000000000000 S
   0.9188232421875000    0.4594116210937500    0.5000000000000000 Pd
   0.5405883789062500    0.4594116210937500    0.5000000000000000 Pd
   0.5405883789062500    0.0811767578125000    0.5000000000000000 Pd
