Ti6 Sn2
1.0
   5.8972487323603406    0.0000000000000000   -0.0003855656890995
  -2.9482898079223681    5.1073603573496493   -0.0003855656890995
   0.0000000000000000    0.0000000000000000    4.7444524765014648
Sn Ti
2 6
direct
   0.6666666865348816    0.3333333432674408    0.2500000000000000 Sn
   0.3333333134651184    0.6666666269302368    0.7500000000000000 Sn
   0.1635131835937500    0.3270263671875000    0.2500000000000000 Ti
   0.6729736328125000    0.8364868164062500    0.2500000000000000 Ti
   0.1635131835937500    0.8364868164062500    0.2500000000000000 Ti
   0.8364868164062500    0.6729736328125000    0.7500000000000000 Ti
   0.3270263671875000    0.1635131835937500    0.7500000000000000 Ti
   0.8364868164062500    0.1635131835937500    0.7500000000000000 Ti
