Cs8 Y4 In4 I24
1.0
  12.2900476193011841    0.0000000000000000   -0.0008035307470413
  -0.0008035832840852   12.2900475930300868   -0.0008035307470413
   0.0000000000000000    0.0000000000000000   12.2900476455688477
Y In Cs I
4 4 8 24
direct
   0.0000000000000000    0.0000000000000000    0.0000000000000000 Y
   0.0000000000000000    0.5000000000000000    0.5000000000000000 Y
   0.5000000000000000    0.0000000000000000    0.5000000000000000 Y
   0.5000000000000000    0.5000000000000000    0.0000000000000000 Y
   0.5000000000000000    0.0000000000000000    0.0000000000000000 In
   0.0000000000000000    0.5000000000000000    0.0000000000000000 In
   0.0000000000000000    0.0000000000000000    0.5000000000000000 In
   0.5000000000000000    0.5000000000000000    0.5000000000000000 In
   0.2500000000000000    0.2500000000000000    0.2500000000000000 Cs
   0.7500000000000000    0.7500000000000000    0.2500000000000000 Cs
   0.7500000000000000    0.2500000000000000    0.7500000000000000 Cs
   0.2500000000000000    0.7500000000000000    0.7500000000000000 Cs
   0.2500000000000000    0.2500000000000000    0.7500000000000000 Cs
   0.7500000000000000    0.7500000000000000    0.7500000000000000 Cs
   0.2500000000000000    0.7500000000000000    0.2500000000000000 Cs
   0.7500000000000000    0.2500000000000000    0.2500000000000000 Cs
   0.7577514648437500    0.0000000000000000    0.0000000000000000 I
   0.2422485351562500    0.0000000000000000    0.0000000000000000 I
   0.0000000000000000    0.7577514648437500    0.0000000000000000 I
   0.0000000000000000    0.2422485351562500    0.0000000000000000 I
   0.0000000000000000    0.0000000000000000    0.7577514648437500 I
   0.0000000000000000    0.0000000000000000    0.2422485351562500 I
   0.7577514648437500    0.5000000000000000    0.5000000000000000 I
   0.2422485351562500    0.5000000000000000    0.5000000000000000 I
   0.0000000000000000    0.2577514648437500    0.5000000000000000 I
   0.0000000000000000    0.7422485351562500    0.5000000000000000 I
   0.0000000000000000    0.5000000000000000    0.2577514648437500 I
   0.0000000000000000    0.5000000000000000    0.7422485351562500 I
   0.2577514648437500    0.0000000000000000    0.5000000000000000 I
   0.7422485351562500    0.0000000000000000    0.5000000000000000 I
   0.5000000000000000    0.7577514648437500    0.5000000000000000 I
   0.5000000000000000    0.2422485351562500    0.5000000000000000 I
   0.5000000000000000    0.0000000000000000    0.2577514648437500 I
   0.5000000000000000    0.0000000000000000    0.7422485351562500 I
   0.2577514648437500    0.5000000000000000    0.0000000000000000 I
   0.7422485351562500    0.5000000000000000    0.0000000000000000 I
   0.5000000000000000    0.2577514648437500    0.0000000000000000 I
   0.5000000000000000    0.7422485351562500    0.0000000000000000 I
   0.5000000000000000    0.5000000000000000    0.7577514648437500 I
   0.5000000000000000    0.5000000000000000    0.2422485351562500 I
