K4 Ba4 Nd4 Bi4 O24
1.0
   8.6875514798450801    0.0000000000000000   -0.0005679973704574
  -0.0005680345076832    8.6875514612746461   -0.0005679973704574
   0.0000000000000000    0.0000000000000000    8.6875514984130859
Bi Nd Ba K O
4 4 4 4 24
direct
   0.0000000000000000    0.0000000000000000    0.0000000000000000 Bi
   0.0000000000000000    0.5000000000000000    0.5000000000000000 Bi
   0.5000000000000000    0.0000000000000000    0.5000000000000000 Bi
   0.5000000000000000    0.5000000000000000    0.0000000000000000 Bi
   0.5000000000000000    0.0000000000000000    0.0000000000000000 Nd
   0.0000000000000000    0.5000000000000000    0.0000000000000000 Nd
   0.0000000000000000    0.0000000000000000    0.5000000000000000 Nd
   0.5000000000000000    0.5000000000000000    0.5000000000000000 Nd
   0.2500000000000000    0.2500000000000000    0.2500000000000000 Ba
   0.7500000000000000    0.7500000000000000    0.2500000000000000 Ba
   0.7500000000000000    0.2500000000000000    0.7500000000000000 Ba
   0.2500000000000000    0.7500000000000000    0.7500000000000000 Ba
   0.2500000000000000    0.2500000000000000    0.7500000000000000 K
   0.7500000000000000    0.7500000000000000    0.7500000000000000 K
   0.7500000000000000    0.2500000000000000    0.2500000000000000 K
   0.2500000000000000    0.7500000000000000    0.2500000000000000 K
   0.7590637207031250    0.0000000000000000    0.0000000000000000 O
   0.2409362792968750    0.0000000000000000    0.0000000000000000 O
   0.0000000000000000    0.7590637207031250    0.0000000000000000 O
   0.0000000000000000    0.2409362792968750    0.0000000000000000 O
   0.0000000000000000    0.0000000000000000    0.7590637207031250 O
   0.0000000000000000    0.0000000000000000    0.2409362792968750 O
   0.7590637207031250    0.5000000000000000    0.5000000000000000 O
   0.2409362792968750    0.5000000000000000    0.5000000000000000 O
   0.0000000000000000    0.2590637207031250    0.5000000000000000 O
   0.0000000000000000    0.7409362792968750    0.5000000000000000 O
   0.0000000000000000    0.5000000000000000    0.2590637207031250 O
   0.0000000000000000    0.5000000000000000    0.7409362792968750 O
   0.2590637207031250    0.0000000000000000    0.5000000000000000 O
   0.7409362792968750    0.0000000000000000    0.5000000000000000 O
   0.5000000000000000    0.7590637207031250    0.5000000000000000 O
   0.5000000000000000    0.2409362792968750    0.5000000000000000 O
   0.5000000000000000    0.0000000000000000    0.2590637207031250 O
   0.5000000000000000    0.0000000000000000    0.7409362792968750 O
   0.2590637207031250    0.5000000000000000    0.0000000000000000 O
   0.7409362792968750    0.5000000000000000    0.0000000000000000 O
   0.5000000000000000    0.2590637207031250    0.0000000000000000 O
   0.5000000000000000    0.7409362792968750    0.0000000000000000 O
   0.5000000000000000    0.5000000000000000    0.7590637207031250 O
   0.5000000000000000    0.5000000000000000    0.2409362792968750 O
