Co16 Si8
1.0
   6.4736504416386440    0.0000000000000000   -0.0004232511814914
  -0.0004232788548144    6.4736504278006253   -0.0004232511814914
   0.0000000000000000    0.0000000000000000    6.4736504554748535
Si Co
8 16
direct
   0.3750000000000000    0.8750000000000000    0.8750000000000000 Si
   0.3750000000000000    0.3750000000000000    0.3750000000000000 Si
   0.8750000000000000    0.3750000000000000    0.8750000000000000 Si
   0.8750000000000000    0.8750000000000000    0.3750000000000000 Si
   0.6250000000000000    0.6250000000000000    0.6250000000000000 Si
   0.1250000000000000    0.6250000000000000    0.1250000000000000 Si
   0.1250000000000000    0.1250000000000000    0.6250000000000000 Si
   0.6250000000000000    0.1250000000000000    0.1250000000000000 Si
   0.2500000000000000    0.0000000000000000    0.7500000000000000 Co
   0.5000000000000000    0.2500000000000000    0.2500000000000000 Co
   0.0000000000000000    0.5000000000000000    0.0000000000000000 Co
   0.7500000000000000    0.7500000000000000    0.5000000000000000 Co
   0.7500000000000000    0.2500000000000000    0.0000000000000000 Co
   0.2500000000000000    0.5000000000000000    0.2500000000000000 Co
   0.0000000000000000    0.0000000000000000    0.5000000000000000 Co
   0.5000000000000000    0.7500000000000000    0.7500000000000000 Co
   0.0000000000000000    0.7500000000000000    0.2500000000000000 Co
   0.2500000000000000    0.2500000000000000    0.5000000000000000 Co
   0.5000000000000000    0.0000000000000000    0.0000000000000000 Co
   0.7500000000000000    0.5000000000000000    0.7500000000000000 Co
   0.7500000000000000    0.0000000000000000    0.2500000000000000 Co
   0.2500000000000000    0.7500000000000000    0.0000000000000000 Co
   0.0000000000000000    0.2500000000000000    0.7500000000000000 Co
   0.5000000000000000    0.5000000000000000    0.5000000000000000 Co
