Gd2 Se4 Cl8
1.0
   5.0504738444066852    0.0000000000000000    1.7955378736161249
   1.2369680235101264    6.3504732622320113    2.8983270292321475
   0.0000000000000000    0.0000000000000000    7.2334518432617188
Cl Se Gd
8 4 2
direct
   0.8073272705078125    0.5654907226562500    0.8932189941406250 Cl
   0.1926727294921875    0.4345092773437500    0.1067810058593750 Cl
   0.7758178710937500    0.1141357421875000    0.9058227539062500 Cl
   0.2241821289062500    0.8858642578125000    0.0941772460937500 Cl
   0.7824707031250000    0.1697998046875000    0.3264007568359375 Cl
   0.2175292968750000    0.8302001953125000    0.6735992431640625 Cl
   0.2420349121093750    0.2918701171875000    0.5485839843750000 Cl
   0.7579650878906250    0.7081298828125000    0.4514160156250000 Cl
   0.3954925537109375    0.6433715820312500    0.3873291015625000 Se
   0.6045074462890625    0.3566284179687500    0.6126708984375000 Se
   0.2580566406250000    0.2600479125976562    0.8997573852539062 Se
   0.7419433593750000    0.7399520874023438    0.1002426147460938 Se
   0.3932495117187500    0.0552062988281250    0.2850952148437500 Gd
   0.6067504882812500    0.9447937011718750    0.7149047851562500 Gd
