Li2 V4 O8
1.0
   5.7110576097132286    0.0000000000000000   -1.5218631845217319
  -0.0003223129632296    3.7881500502893970   -0.0002476715424643
   0.0000000000000000    0.0000000000000000    6.8142485618591309
V Li O V O
2 2 4 2 4
direct
   0.0000000000000000    0.0000000000000000    0.0000000000000000 V
   0.0000000000000000    0.5000000000000000    0.5000000000000000 V
   0.7474975585937500    0.0000000000000000    0.3484497070312500 Li
   0.2525024414062500    0.0000000000000000    0.6515502929687500 Li
   0.7703857421875000    0.5000000000000000    0.9729003906250000 O
   0.2296142578125000    0.5000000000000000    0.0270996093750000 O
   0.6345825195312500    0.5000000000000000    0.3700103759765625 O
   0.3654174804687500    0.5000000000000000    0.6299896240234375 O
   0.3294067382812500    0.5000000000000000    0.2762756347656250 V
   0.6705932617187500    0.5000000000000000    0.7237243652343750 V
   0.9414062500000000    0.7721557617187500    0.6938781738281250 O
   0.0585937500000000    0.7721557617187500    0.3061218261718750 O
   0.0585937500000000    0.2278442382812500    0.3061218261718750 O
   0.9414062500000000    0.2278442382812500    0.6938781738281250 O
