Ba8 Na4 Pt4
1.0
   8.3207530797501370    0.0000000000000000   -0.0005440158691995
  -0.0005440514384490    8.3207530619637691   -0.0005440158691995
   0.0000000000000000    0.0000000000000000    8.3207530975341797
Pt Na Ba
4 4 8
direct
   0.0000000000000000    0.0000000000000000    0.0000000000000000 Pt
   0.0000000000000000    0.5000000000000000    0.5000000000000000 Pt
   0.5000000000000000    0.0000000000000000    0.5000000000000000 Pt
   0.5000000000000000    0.5000000000000000    0.0000000000000000 Pt
   0.5000000000000000    0.0000000000000000    0.0000000000000000 Na
   0.0000000000000000    0.5000000000000000    0.0000000000000000 Na
   0.0000000000000000    0.0000000000000000    0.5000000000000000 Na
   0.5000000000000000    0.5000000000000000    0.5000000000000000 Na
   0.2500000000000000    0.2500000000000000    0.2500000000000000 Ba
   0.7500000000000000    0.7500000000000000    0.2500000000000000 Ba
   0.7500000000000000    0.2500000000000000    0.7500000000000000 Ba
   0.2500000000000000    0.7500000000000000    0.7500000000000000 Ba
   0.2500000000000000    0.2500000000000000    0.7500000000000000 Ba
   0.7500000000000000    0.7500000000000000    0.7500000000000000 Ba
   0.2500000000000000    0.7500000000000000    0.2500000000000000 Ba
   0.7500000000000000    0.2500000000000000    0.2500000000000000 Ba
