K2 Zn2 Ga4 Se12
1.0
   7.9372522067506086    0.0000000000000000   -2.1719458713549535
  -0.0009732629897469   11.3599490459665979   -0.0007427203424682
   0.0000000000000000    0.0000000000000000    7.6526508331298828
K Zn Ga Se
2 2 4 12
direct
   0.5000000000000000    0.8465576171875000    0.0000000000000000 K
   0.0000000000000000    0.3465576171875000    0.0000000000000000 K
   0.5000000000000000    0.2249145507812500    0.5000000000000000 Zn
   0.0000000000000000    0.7249145507812500    0.5000000000000000 Zn
   0.3552856445312500    0.4892578125000000    0.8096160888671875 Ga
   0.6447143554687500    0.4892578125000000    0.1903839111328125 Ga
   0.8552856445312500    0.9892578125000000    0.8096160888671875 Ga
   0.1447143554687500    0.9892578125000000    0.1903839111328125 Ga
   0.7647399902343750    0.8667602539062500    0.5283813476562500 Se
   0.2352600097656250    0.8667602539062500    0.4716186523437500 Se
   0.2647399902343750    0.3667602539062500    0.5283813476562500 Se
   0.7352600097656250    0.3667602539062500    0.4716186523437500 Se
   0.6004638671875000    0.0982208251953125    0.7749633789062500 Se
   0.3995361328125000    0.0982208251953125    0.2250366210937500 Se
   0.1004638671875000    0.5982208251953125    0.7749633789062500 Se
   0.8995361328125000    0.5982208251953125    0.2250366210937500 Se
   0.6368713378906250    0.5605163574218750    0.8553466796875000 Se
   0.3631286621093750    0.5605163574218750    0.1446533203125000 Se
   0.1368713378906250    0.0605163574218750    0.8553466796875000 Se
   0.8631286621093750    0.0605163574218750    0.1446533203125000 Se
