Re6 B4 W2
1.0
   3.0545492106955972    0.0000000000000000   -0.0001997082749533
  -0.0002117128670451    3.2379484038216590   -0.0002116990255823
   0.0000000000000000    0.0000000000000000   13.9013490676879883
B Re B W Re
2 4 2 2 2
direct
   0.0000000000000000    0.5000000000000000    0.1913757324218750 B
   0.0000000000000000    0.0000000000000000    0.6913757324218750 B
   0.0000000000000000    0.5000000000000000    0.8599243164062500 Re
   0.0000000000000000    0.0000000000000000    0.3599243164062500 Re
   0.0000000000000000    0.5000000000000000    0.5122070312500000 Re
   0.0000000000000000    0.0000000000000000    0.0122070312500000 Re
   0.5000000000000000    0.5000000000000000    0.9913101196289062 B
   0.5000000000000000    0.0000000000000000    0.4913101196289062 B
   0.5000000000000000    0.5000000000000000    0.6596679687500000 W
   0.5000000000000000    0.0000000000000000    0.1596679687500000 W
   0.5000000000000000    0.5000000000000000    0.3189086914062500 Re
   0.5000000000000000    0.0000000000000000    0.8189086914062500 Re
