Rb12 Ti4 F24
1.0
   8.8185491373409768    0.0000000000000000   -0.0005765620765391
  -0.0005765997737488    8.8185491184905231   -0.0005765620765391
   0.0000000000000000    0.0000000000000000    8.8185491561889648
Ti Rb F
4 12 24
direct
   0.0000000000000000    0.0000000000000000    0.0000000000000000 Ti
   0.0000000000000000    0.5000000000000000    0.5000000000000000 Ti
   0.5000000000000000    0.0000000000000000    0.5000000000000000 Ti
   0.5000000000000000    0.5000000000000000    0.0000000000000000 Ti
   0.5000000000000000    0.0000000000000000    0.0000000000000000 Rb
   0.0000000000000000    0.5000000000000000    0.0000000000000000 Rb
   0.0000000000000000    0.0000000000000000    0.5000000000000000 Rb
   0.5000000000000000    0.5000000000000000    0.5000000000000000 Rb
   0.2500000000000000    0.2500000000000000    0.2500000000000000 Rb
   0.7500000000000000    0.7500000000000000    0.2500000000000000 Rb
   0.7500000000000000    0.2500000000000000    0.7500000000000000 Rb
   0.2500000000000000    0.7500000000000000    0.7500000000000000 Rb
   0.2500000000000000    0.2500000000000000    0.7500000000000000 Rb
   0.7500000000000000    0.7500000000000000    0.7500000000000000 Rb
   0.2500000000000000    0.7500000000000000    0.2500000000000000 Rb
   0.7500000000000000    0.2500000000000000    0.2500000000000000 Rb
   0.2180786132812500    0.0000000000000000    0.0000000000000000 F
   0.7819213867187500    0.0000000000000000    0.0000000000000000 F
   0.0000000000000000    0.2180786132812500    0.0000000000000000 F
   0.0000000000000000    0.7819213867187500    0.0000000000000000 F
   0.0000000000000000    0.0000000000000000    0.2180786132812500 F
   0.0000000000000000    0.0000000000000000    0.7819213867187500 F
   0.2180786132812500    0.5000000000000000    0.5000000000000000 F
   0.7819213867187500    0.5000000000000000    0.5000000000000000 F
   0.0000000000000000    0.7180786132812500    0.5000000000000000 F
   0.0000000000000000    0.2819213867187500    0.5000000000000000 F
   0.0000000000000000    0.5000000000000000    0.7180786132812500 F
   0.0000000000000000    0.5000000000000000    0.2819213867187500 F
   0.7180786132812500    0.0000000000000000    0.5000000000000000 F
   0.2819213867187500    0.0000000000000000    0.5000000000000000 F
   0.5000000000000000    0.2180786132812500    0.5000000000000000 F
   0.5000000000000000    0.7819213867187500    0.5000000000000000 F
   0.5000000000000000    0.0000000000000000    0.7180786132812500 F
   0.5000000000000000    0.0000000000000000    0.2819213867187500 F
   0.7180786132812500    0.5000000000000000    0.0000000000000000 F
   0.2819213867187500    0.5000000000000000    0.0000000000000000 F
   0.5000000000000000    0.7180786132812500    0.0000000000000000 F
   0.5000000000000000    0.2819213867187500    0.0000000000000000 F
   0.5000000000000000    0.5000000000000000    0.2180786132812500 F
   0.5000000000000000    0.5000000000000000    0.7819213867187500 F
