Bi8 O16
1.0
   6.7749500129856397    0.0000000000000000   -0.0004429503297084
  -0.0004798105711278    7.3382496520098215   -0.0004797792018478
   0.0000000000000000    0.0000000000000000   10.1154499053955078
O Bi
16 8
direct
   0.6317443847656250    0.4177856445312500    0.8754882812500000 O
   0.3682556152343750    0.5822143554687500    0.3754882812500000 O
   0.1317443847656250    0.5822143554687500    0.8754882812500000 O
   0.8682556152343750    0.4177856445312500    0.3754882812500000 O
   0.4844131469726562    0.1506958007812500    0.3059082031250000 O
   0.5155868530273438    0.8493041992187500    0.8059082031250000 O
   0.9844131469726562    0.8493041992187500    0.3059082031250000 O
   0.0155868530273438    0.1506958007812500    0.8059082031250000 O
   0.5310363769531250    0.1116218566894531    0.6234130859375000 O
   0.4689636230468750    0.8883781433105469    0.1234130859375000 O
   0.0310363769531250    0.8883781433105469    0.6234130859375000 O
   0.9689636230468750    0.1116218566894531    0.1234130859375000 O
   0.2274322509765625    0.3746643066406250    0.5817871093750000 O
   0.7725677490234375    0.6253356933593750    0.0817871093750000 O
   0.7274322509765625    0.6253356933593750    0.5817871093750000 O
   0.2725677490234375    0.3746643066406250    0.0817871093750000 O
   0.0661621093750000    0.6063842773437500    0.4640350341796875 Bi
   0.9338378906250000    0.3936157226562500    0.9640350341796875 Bi
   0.5661621093750000    0.3936157226562500    0.4640350341796875 Bi
   0.4338378906250000    0.6063842773437500    0.9640350341796875 Bi
   0.2673339843750000    0.1175384521484375    0.1833190917968750 Bi
   0.7326660156250000    0.8824615478515625    0.6833190917968750 Bi
   0.7673339843750000    0.8824615478515625    0.1833190917968750 Bi
   0.2326660156250000    0.1175384521484375    0.6833190917968750 Bi
