Cs4 Yb4 Cd4 Te4
1.0
   4.6265487572014665    0.0000000000000000   -0.0003024865561350
  -0.0009740353275317   14.8969506580577029   -0.0009739716465944
   0.0000000000000000    0.0000000000000000   11.2551479339599609
Yb Cd Te Cs
4 4 4 4
direct
   0.0000000000000000    0.0000000000000000    0.0000000000000000 Yb
   0.0000000000000000    0.0000000000000000    0.5000000000000000 Yb
   0.5000000000000000    0.5000000000000000    0.0000000000000000 Yb
   0.5000000000000000    0.5000000000000000    0.5000000000000000 Yb
   0.0000000000000000    0.5297155380249023    0.2500000000000000 Cd
   0.0000000000000000    0.4702844619750977    0.7500000000000000 Cd
   0.5000000000000000    0.0297155380249023    0.2500000000000000 Cd
   0.5000000000000000    0.9702844619750977    0.7500000000000000 Cd
   0.5000000000000000    0.4226684570312500    0.2500000000000000 Te
   0.5000000000000000    0.5773315429687500    0.7500000000000000 Te
   0.0000000000000000    0.9226684570312500    0.2500000000000000 Te
   0.0000000000000000    0.0773315429687500    0.7500000000000000 Te
   0.5000000000000000    0.7368774414062500    0.2500000000000000 Cs
   0.5000000000000000    0.2631225585937500    0.7500000000000000 Cs
   0.0000000000000000    0.2368774414062500    0.2500000000000000 Cs
   0.0000000000000000    0.7631225585937500    0.7500000000000000 Cs
