Mn2 Co1 Sb2 As2
1.0
   5.3469644606189739    0.0000000000000000   -0.0304465046633448
  -0.0002533926631390    3.8536491228370622   -0.0002519539110930
   0.0000000000000000    0.0000000000000000    6.8666496276855469
Co Mn Sb As
1 2 2 2
direct
   0.5000000000000000    0.5000000000000000    0.0000000000000000 Co
   0.0000000000000000    0.5000000000000000    0.5000000000000000 Mn
   0.5000000000000000    0.0000000000000000    0.5000000000000000 Mn
   0.1872558593750000    0.0000000000000000    0.8230895996093750 Sb
   0.8127441406250000    0.0000000000000000    0.1769104003906250 Sb
   0.3313598632812500    0.5000000000000000    0.2906188964843750 As
   0.6686401367187500    0.5000000000000000    0.7093811035156250 As
