K2 V4 Cr2 F8
1.0
   5.9758500925133902    0.0000000000000000   -0.0003907046935687
  -0.0003907302389131    5.9758500797394651   -0.0003907046935687
   0.0000000000000000    0.0000000000000000    9.0412511825561523
Cr K F V
2 2 8 4
direct
   0.0000000000000000    0.5000000000000000    0.0000000000000000 Cr
   0.5000000000000000    0.0000000000000000    0.5000000000000000 Cr
   0.5000000000000000    0.5000000000000000    0.2500000000000000 K
   0.5000000000000000    0.5000000000000000    0.7500000000000000 K
   0.0000000000000000    0.0000000000000000    0.4314422607421875 F
   0.0000000000000000    0.0000000000000000    0.9314422607421875 F
   0.0000000000000000    0.0000000000000000    0.5685577392578125 F
   0.0000000000000000    0.0000000000000000    0.0685577392578125 F
   0.0000000000000000    0.0000000000000000    0.3055492639541626 F
   0.0000000000000000    0.0000000000000000    0.8055492639541626 F
   0.0000000000000000    0.0000000000000000    0.6944507360458374 F
   0.0000000000000000    0.0000000000000000    0.1944507360458374 F
   0.6827526092529297    0.5000000000000000    0.0000000000000000 V
   0.3172473907470703    0.5000000000000000    0.0000000000000000 V
   0.5000000000000000    0.6827526092529297    0.5000000000000000 V
   0.5000000000000000    0.3172473907470703    0.5000000000000000 V
