Rb8 Nd4 Ag4 I24
1.0
  12.0542478303764504    0.0000000000000000   -0.0007881140142168
  -0.0007881655432725   12.0542478046093962   -0.0007881140142168
   0.0000000000000000    0.0000000000000000   12.0542478561401367
Ag Nd Rb I
4 4 8 24
direct
   0.0000000000000000    0.0000000000000000    0.0000000000000000 Ag
   0.0000000000000000    0.5000000000000000    0.5000000000000000 Ag
   0.5000000000000000    0.0000000000000000    0.5000000000000000 Ag
   0.5000000000000000    0.5000000000000000    0.0000000000000000 Ag
   0.5000000000000000    0.0000000000000000    0.0000000000000000 Nd
   0.0000000000000000    0.5000000000000000    0.0000000000000000 Nd
   0.0000000000000000    0.0000000000000000    0.5000000000000000 Nd
   0.5000000000000000    0.5000000000000000    0.5000000000000000 Nd
   0.2500000000000000    0.2500000000000000    0.2500000000000000 Rb
   0.7500000000000000    0.7500000000000000    0.2500000000000000 Rb
   0.7500000000000000    0.2500000000000000    0.7500000000000000 Rb
   0.2500000000000000    0.7500000000000000    0.7500000000000000 Rb
   0.2500000000000000    0.2500000000000000    0.7500000000000000 Rb
   0.7500000000000000    0.7500000000000000    0.7500000000000000 Rb
   0.2500000000000000    0.7500000000000000    0.2500000000000000 Rb
   0.7500000000000000    0.2500000000000000    0.2500000000000000 Rb
   0.7561340332031250    0.0000000000000000    0.0000000000000000 I
   0.2438659667968750    0.0000000000000000    0.0000000000000000 I
   0.0000000000000000    0.7561340332031250    0.0000000000000000 I
   0.0000000000000000    0.2438659667968750    0.0000000000000000 I
   0.0000000000000000    0.0000000000000000    0.7561340332031250 I
   0.0000000000000000    0.0000000000000000    0.2438659667968750 I
   0.7561340332031250    0.5000000000000000    0.5000000000000000 I
   0.2438659667968750    0.5000000000000000    0.5000000000000000 I
   0.0000000000000000    0.2561340332031250    0.5000000000000000 I
   0.0000000000000000    0.7438659667968750    0.5000000000000000 I
   0.0000000000000000    0.5000000000000000    0.2561340332031250 I
   0.0000000000000000    0.5000000000000000    0.7438659667968750 I
   0.2561340332031250    0.0000000000000000    0.5000000000000000 I
   0.7438659667968750    0.0000000000000000    0.5000000000000000 I
   0.5000000000000000    0.7561340332031250    0.5000000000000000 I
   0.5000000000000000    0.2438659667968750    0.5000000000000000 I
   0.5000000000000000    0.0000000000000000    0.2561340332031250 I
   0.5000000000000000    0.0000000000000000    0.7438659667968750 I
   0.2561340332031250    0.5000000000000000    0.0000000000000000 I
   0.7438659667968750    0.5000000000000000    0.0000000000000000 I
   0.5000000000000000    0.2561340332031250    0.0000000000000000 I
   0.5000000000000000    0.7438659667968750    0.0000000000000000 I
   0.5000000000000000    0.5000000000000000    0.7561340332031250 I
   0.5000000000000000    0.5000000000000000    0.2438659667968750 I
