K8 Na4 Tb4 Cl24
1.0
  10.3643483894082156    0.0000000000000000   -0.0006776273666229
  -0.0006776716717586   10.3643483672534753   -0.0006776273666229
   0.0000000000000000    0.0000000000000000   10.3643484115600586
Tb Na K Cl
4 4 8 24
direct
   0.0000000000000000    0.0000000000000000    0.0000000000000000 Tb
   0.0000000000000000    0.5000000000000000    0.5000000000000000 Tb
   0.5000000000000000    0.0000000000000000    0.5000000000000000 Tb
   0.5000000000000000    0.5000000000000000    0.0000000000000000 Tb
   0.5000000000000000    0.0000000000000000    0.0000000000000000 Na
   0.0000000000000000    0.5000000000000000    0.0000000000000000 Na
   0.0000000000000000    0.0000000000000000    0.5000000000000000 Na
   0.5000000000000000    0.5000000000000000    0.5000000000000000 Na
   0.2500000000000000    0.2500000000000000    0.2500000000000000 K
   0.7500000000000000    0.7500000000000000    0.2500000000000000 K
   0.7500000000000000    0.2500000000000000    0.7500000000000000 K
   0.2500000000000000    0.7500000000000000    0.7500000000000000 K
   0.2500000000000000    0.2500000000000000    0.7500000000000000 K
   0.7500000000000000    0.7500000000000000    0.7500000000000000 K
   0.2500000000000000    0.7500000000000000    0.2500000000000000 K
   0.7500000000000000    0.2500000000000000    0.2500000000000000 K
   0.2455444335937500    0.0000000000000000    0.0000000000000000 Cl
   0.7544555664062500    0.0000000000000000    0.0000000000000000 Cl
   0.0000000000000000    0.2455444335937500    0.0000000000000000 Cl
   0.0000000000000000    0.7544555664062500    0.0000000000000000 Cl
   0.0000000000000000    0.0000000000000000    0.2455444335937500 Cl
   0.0000000000000000    0.0000000000000000    0.7544555664062500 Cl
   0.2455444335937500    0.5000000000000000    0.5000000000000000 Cl
   0.7544555664062500    0.5000000000000000    0.5000000000000000 Cl
   0.0000000000000000    0.7455444335937500    0.5000000000000000 Cl
   0.0000000000000000    0.2544555664062500    0.5000000000000000 Cl
   0.0000000000000000    0.5000000000000000    0.7455444335937500 Cl
   0.0000000000000000    0.5000000000000000    0.2544555664062500 Cl
   0.7455444335937500    0.0000000000000000    0.5000000000000000 Cl
   0.2544555664062500    0.0000000000000000    0.5000000000000000 Cl
   0.5000000000000000    0.2455444335937500    0.5000000000000000 Cl
   0.5000000000000000    0.7544555664062500    0.5000000000000000 Cl
   0.5000000000000000    0.0000000000000000    0.7455444335937500 Cl
   0.5000000000000000    0.0000000000000000    0.2544555664062500 Cl
   0.7455444335937500    0.5000000000000000    0.0000000000000000 Cl
   0.2544555664062500    0.5000000000000000    0.0000000000000000 Cl
   0.5000000000000000    0.7455444335937500    0.0000000000000000 Cl
   0.5000000000000000    0.2544555664062500    0.0000000000000000 Cl
   0.5000000000000000    0.5000000000000000    0.2455444335937500 Cl
   0.5000000000000000    0.5000000000000000    0.7544555664062500 Cl
