Cu8
1.0
   6.0806479324078122    0.0000000000000000   -0.0003975564397285
  -0.0003975824330588    6.0806479194098726   -0.0003975564397285
   0.0000000000000000    0.0000000000000000    6.0806479454040527
Cu
8
direct
   0.0000000000000000    0.0000000000000000    0.0000000000000000 Cu
   0.0000000000000000    0.5000000000000000    0.5000000000000000 Cu
   0.5000000000000000    0.5000000000000000    0.0000000000000000 Cu
   0.5000000000000000    0.0000000000000000    0.5000000000000000 Cu
   0.7500000000000000    0.2500000000000000    0.7500000000000000 Cu
   0.2500000000000000    0.2500000000000000    0.2500000000000000 Cu
   0.2500000000000000    0.7500000000000000    0.7500000000000000 Cu
   0.7500000000000000    0.7500000000000000    0.2500000000000000 Cu
