Li4 Bi4 Pb8 O24
1.0
   9.1329507632559164    0.0000000000000000   -0.0005971178450086
  -0.0005971568862109    9.1329507437334012   -0.0005971178450086
   0.0000000000000000    0.0000000000000000    9.1329507827758789
Li Bi Pb O
4 4 8 24
direct
   0.0000000000000000    0.0000000000000000    0.0000000000000000 Li
   0.0000000000000000    0.5000000000000000    0.5000000000000000 Li
   0.5000000000000000    0.0000000000000000    0.5000000000000000 Li
   0.5000000000000000    0.5000000000000000    0.0000000000000000 Li
   0.5000000000000000    0.0000000000000000    0.0000000000000000 Bi
   0.0000000000000000    0.5000000000000000    0.0000000000000000 Bi
   0.0000000000000000    0.0000000000000000    0.5000000000000000 Bi
   0.5000000000000000    0.5000000000000000    0.5000000000000000 Bi
   0.2500000000000000    0.2500000000000000    0.2500000000000000 Pb
   0.7500000000000000    0.7500000000000000    0.2500000000000000 Pb
   0.7500000000000000    0.2500000000000000    0.7500000000000000 Pb
   0.2500000000000000    0.7500000000000000    0.7500000000000000 Pb
   0.2500000000000000    0.2500000000000000    0.7500000000000000 Pb
   0.7500000000000000    0.7500000000000000    0.7500000000000000 Pb
   0.2500000000000000    0.7500000000000000    0.2500000000000000 Pb
   0.7500000000000000    0.2500000000000000    0.2500000000000000 Pb
   0.2606201171875000    0.0000000000000000    0.0000000000000000 O
   0.7393798828125000    0.0000000000000000    0.0000000000000000 O
   0.0000000000000000    0.2606201171875000    0.0000000000000000 O
   0.0000000000000000    0.7393798828125000    0.0000000000000000 O
   0.0000000000000000    0.0000000000000000    0.2606201171875000 O
   0.0000000000000000    0.0000000000000000    0.7393798828125000 O
   0.2606201171875000    0.5000000000000000    0.5000000000000000 O
   0.7393798828125000    0.5000000000000000    0.5000000000000000 O
   0.0000000000000000    0.7606201171875000    0.5000000000000000 O
   0.0000000000000000    0.2393798828125000    0.5000000000000000 O
   0.0000000000000000    0.5000000000000000    0.7606201171875000 O
   0.0000000000000000    0.5000000000000000    0.2393798828125000 O
   0.7606201171875000    0.0000000000000000    0.5000000000000000 O
   0.2393798828125000    0.0000000000000000    0.5000000000000000 O
   0.5000000000000000    0.2606201171875000    0.5000000000000000 O
   0.5000000000000000    0.7393798828125000    0.5000000000000000 O
   0.5000000000000000    0.0000000000000000    0.7606201171875000 O
   0.5000000000000000    0.0000000000000000    0.2393798828125000 O
   0.7606201171875000    0.5000000000000000    0.0000000000000000 O
   0.2393798828125000    0.5000000000000000    0.0000000000000000 O
   0.5000000000000000    0.7606201171875000    0.0000000000000000 O
   0.5000000000000000    0.2393798828125000    0.0000000000000000 O
   0.5000000000000000    0.5000000000000000    0.2606201171875000 O
   0.5000000000000000    0.5000000000000000    0.7393798828125000 O
