Hf2 Fe2 Ge2
1.0
   3.5392477436714862    0.0000000000000000   -0.0002313981582114
  -0.0002314132876576    3.5392477361060215   -0.0002313981582114
   0.0000000000000000    0.0000000000000000    7.6264467239379883
Fe Ge Hf
2 2 2
direct
   0.7500000000000000    0.2500000000000000    0.0000000000000000 Fe
   0.2500000000000000    0.7500000000000000    0.0000000000000000 Fe
   0.2500000000000000    0.2500000000000000    0.7829933166503906 Ge
   0.7500000000000000    0.7500000000000000    0.2170066833496094 Ge
   0.2500000000000000    0.2500000000000000    0.3657226562500000 Hf
   0.7500000000000000    0.7500000000000000    0.6342773437500000 Hf
