V2 Cr4 Cl8
1.0
   7.5478491621821018    0.0000000000000000   -0.0004934829435745
  -0.0004960847387777    7.5871476802731985   -0.0004960523055175
   0.0000000000000000    0.0000000000000000    6.9583492279052734
V Cr Cl
2 4 8
direct
   0.0000000000000000    0.0000000000000000    0.0000000000000000 V
   0.5000000000000000    0.5000000000000000    0.0000000000000000 V
   0.0000000000000000    0.0000000000000000    0.5000000000000000 Cr
   0.5000000000000000    0.5000000000000000    0.5000000000000000 Cr
   0.5000000000000000    0.0000000000000000    0.0000000000000000 Cr
   0.0000000000000000    0.5000000000000000    0.0000000000000000 Cr
   0.7426452636718750    0.7920532226562500    0.0000000000000000 Cl
   0.2573547363281250    0.2079467773437500    0.0000000000000000 Cl
   0.7573547363281250    0.2920532226562500    0.0000000000000000 Cl
   0.2426452636718750    0.7079467773437500    0.0000000000000000 Cl
   0.2219238281250000    0.3555908203125000    0.5000000000000000 Cl
   0.7780761718750000    0.6444091796875000    0.5000000000000000 Cl
   0.2780761718750000    0.8555908203125000    0.5000000000000000 Cl
   0.7219238281250000    0.1444091796875000    0.5000000000000000 Cl
