La4 Sn2 Pt4
1.0
   7.3644499621346302    0.0000000000000000   -0.0004814921929455
  -0.0004815236742256    7.3644499463924467   -0.0004814921929455
   0.0000000000000000    0.0000000000000000    4.4300508499145508
Sn Pt La
2 4 4
direct
   0.0000000000000000    0.0000000000000000    0.0000000000000000 Sn
   0.5000000000000000    0.5000000000000000    0.0000000000000000 Sn
   0.6375951766967773    0.8624048233032227    0.0000000000000000 Pt
   0.3624048233032227    0.1375951766967773    0.0000000000000000 Pt
   0.1375951766967773    0.6375951766967773    0.0000000000000000 Pt
   0.8624048233032227    0.3624048233032227    0.0000000000000000 Pt
   0.8235855102539062    0.6764144897460938    0.5000000000000000 La
   0.1764144897460938    0.3235855102539062    0.5000000000000000 La
   0.3235855102539062    0.8235855102539062    0.5000000000000000 La
   0.6764144897460938    0.1764144897460938    0.5000000000000000 La
