Dy4 Zn4 Pd4
1.0
   6.3819508416149082    0.0000000000000000   -0.0004172558061769
  -0.0003059325397312    4.6789493360770464   -0.0003059125383305
   0.0000000000000000    0.0000000000000000    7.7312483787536621
Zn Pd Dy
4 4 4
direct
   0.8326721191406250    0.2500000000000000    0.0626220703125000 Zn
   0.6673278808593750    0.7500000000000000    0.5626220703125000 Zn
   0.1673278808593750    0.7500000000000000    0.9373779296875000 Zn
   0.3326721191406250    0.2500000000000000    0.4373779296875000 Zn
   0.7301483154296875    0.2500000000000000    0.3953590393066406 Pd
   0.7698516845703125    0.7500000000000000    0.8953590393066406 Pd
   0.2698516845703125    0.7500000000000000    0.6046409606933594 Pd
   0.2301483154296875    0.2500000000000000    0.1046409606933594 Pd
   0.9707946777343750    0.2500000000000000    0.6886291503906250 Dy
   0.5292053222656250    0.7500000000000000    0.1886291503906250 Dy
   0.0292053222656250    0.7500000000000000    0.3113708496093750 Dy
   0.4707946777343750    0.2500000000000000    0.8113708496093750 Dy
