Li4 Ti4 Cr2 Fe2 Ni4 O16
1.0
   5.9496497980747591    0.0000000000000000   -0.0003889917024710
  -0.0005697475484252    8.7137508019829593   -0.0005697102992034
   0.0000000000000000    0.0000000000000000    7.3382496833801270
Fe Cr Li Ti Ni O
2 2 4 4 4 16
direct
   0.0000000000000000    0.5000000000000000    0.0000000000000000 Fe
   0.5000000000000000    0.0000000000000000    0.0000000000000000 Fe
   0.0000000000000000    0.0000000000000000    0.5000000000000000 Cr
   0.5000000000000000    0.5000000000000000    0.5000000000000000 Cr
   0.2500000000000000    0.2500000000000000    0.0000000000000000 Li
   0.7500000000000000    0.7500000000000000    0.0000000000000000 Li
   0.7500000000000000    0.2500000000000000    0.0000000000000000 Li
   0.2500000000000000    0.7500000000000000    0.0000000000000000 Li
   0.6607666015625000    0.0000000000000000    0.5000000000000000 Ti
   0.3392333984375000    0.0000000000000000    0.5000000000000000 Ti
   0.1607666015625000    0.5000000000000000    0.5000000000000000 Ti
   0.8392333984375000    0.5000000000000000    0.5000000000000000 Ti
   0.7277832031250000    0.5000000000000000    0.5000000000000000 Ni
   0.2722167968750000    0.5000000000000000    0.5000000000000000 Ni
   0.2277832031250000    0.0000000000000000    0.5000000000000000 Ni
   0.7722167968750000    0.0000000000000000    0.5000000000000000 Ni
   0.0000000000000000    0.0000000000000000    0.6847381591796875 O
   0.0000000000000000    0.0000000000000000    0.3152618408203125 O
   0.5000000000000000    0.5000000000000000    0.6847381591796875 O
   0.5000000000000000    0.5000000000000000    0.3152618408203125 O
   0.0000000000000000    0.5000000000000000    0.3268127441406250 O
   0.0000000000000000    0.5000000000000000    0.6731872558593750 O
   0.5000000000000000    0.0000000000000000    0.3268127441406250 O
   0.5000000000000000    0.0000000000000000    0.6731872558593750 O
   0.7350463867187500    0.9089965820312500    0.0000000000000000 O
   0.2649536132812500    0.0910034179687500    0.0000000000000000 O
   0.2649536132812500    0.9089965820312500    0.0000000000000000 O
   0.7350463867187500    0.0910034179687500    0.0000000000000000 O
   0.2350463867187500    0.4089965820312500    0.0000000000000000 O
   0.7649536132812500    0.5910034179687500    0.0000000000000000 O
   0.7649536132812500    0.4089965820312500    0.0000000000000000 O
   0.2350463867187500    0.5910034179687500    0.0000000000000000 O
