Sc4 Cu4 O4
1.0
   2.8187491833522853    0.0000000000000000   -0.0001842915265409
  -0.0001997213324280    3.0545492041662197   -0.0001997082749533
   0.0000000000000000    0.0000000000000000   15.9580507278442383
Cu Sc O
4 4 4
direct
   0.0000000000000000    0.0000000000000000    0.0000000000000000 Cu
   0.5000000000000000    0.5000000000000000    0.5000000000000000 Cu
   0.0000000000000000    0.5000000000000000    0.0000000000000000 Cu
   0.5000000000000000    0.0000000000000000    0.5000000000000000 Cu
   0.0000000000000000    0.0000000000000000    0.6723480224609375 Sc
   0.0000000000000000    0.0000000000000000    0.3276519775390625 Sc
   0.5000000000000000    0.5000000000000000    0.1723480224609375 Sc
   0.5000000000000000    0.5000000000000000    0.8276519775390625 Sc
   0.0000000000000000    0.5000000000000000    0.7366333007812500 O
   0.0000000000000000    0.5000000000000000    0.2633666992187500 O
   0.5000000000000000    0.0000000000000000    0.2366333007812500 O
   0.5000000000000000    0.0000000000000000    0.7633666992187500 O
