Bi28 Au12
1.0
  10.8359479672576811    0.0000000000000000   -0.0007084608322719
  -0.0007085071533841   10.8359479440948547   -0.0007084608322719
   0.0000000000000000    0.0000000000000000   10.8359479904174805
Au Bi
12 28
direct
   0.2500000000000000    0.3750000000000000    0.0000000000000000 Au
   0.2500000000000000    0.6250000000000000    0.5000000000000000 Au
   0.7500000000000000    0.8750000000000000    0.5000000000000000 Au
   0.7500000000000000    0.1250000000000000    0.0000000000000000 Au
   0.0000000000000000    0.2500000000000000    0.3750000000000000 Au
   0.5000000000000000    0.2500000000000000    0.6250000000000000 Au
   0.5000000000000000    0.7500000000000000    0.8750000000000000 Au
   0.0000000000000000    0.7500000000000000    0.1250000000000000 Au
   0.3750000000000000    0.0000000000000000    0.2500000000000000 Au
   0.6250000000000000    0.5000000000000000    0.2500000000000000 Au
   0.8750000000000000    0.5000000000000000    0.7500000000000000 Au
   0.1250000000000000    0.0000000000000000    0.7500000000000000 Au
   0.5000000000000000    0.2500000000000000    0.1250000000000000 Bi
   0.0000000000000000    0.7500000000000000    0.6250000000000000 Bi
   0.5000000000000000    0.7500000000000000    0.3750000000000000 Bi
   0.0000000000000000    0.2500000000000000    0.8750000000000000 Bi
   0.1250000000000000    0.5000000000000000    0.2500000000000000 Bi
   0.6250000000000000    0.0000000000000000    0.7500000000000000 Bi
   0.3750000000000000    0.5000000000000000    0.7500000000000000 Bi
   0.8750000000000000    0.0000000000000000    0.2500000000000000 Bi
   0.2500000000000000    0.1250000000000000    0.5000000000000000 Bi
   0.7500000000000000    0.6250000000000000    0.0000000000000000 Bi
   0.7500000000000000    0.3750000000000000    0.5000000000000000 Bi
   0.2500000000000000    0.8750000000000000    0.0000000000000000 Bi
   0.4049034118652344    0.4049034118652344    0.4049034118652344 Bi
   0.0950965881347656    0.5950965881347656    0.9049034118652344 Bi
   0.5950965881347656    0.9049034118652344    0.0950965881347656 Bi
   0.9049034118652344    0.0950965881347656    0.5950965881347656 Bi
   0.6549034118652344    0.6549034118652344    0.6549034118652344 Bi
   0.8450965881347656    0.3450965881347656    0.1549034118652344 Bi
   0.1549034118652344    0.8450965881347656    0.3450965881347656 Bi
   0.3450965881347656    0.1549034118652344    0.8450965881347656 Bi
   0.9049034118652344    0.9049034118652344    0.9049034118652344 Bi
   0.5950965881347656    0.0950965881347656    0.4049034118652344 Bi
   0.0950965881347656    0.4049034118652344    0.5950965881347656 Bi
   0.4049034118652344    0.5950965881347656    0.0950965881347656 Bi
   0.1549034118652344    0.1549034118652344    0.1549034118652344 Bi
   0.3450965881347656    0.8450965881347656    0.6549034118652344 Bi
   0.6549034118652344    0.3450965881347656    0.8450965881347656 Bi
   0.8450965881347656    0.6549034118652344    0.3450965881347656 Bi
