Ga8
1.0
   4.0763511570590509    0.0000000000000000   -0.0002665143042481
  -0.0002665317296842    4.0763511483454788   -0.0002665143042481
   0.0000000000000000    0.0000000000000000    7.3644499778747559
Ga
8
direct
   0.0000000000000000    0.0000000000000000    0.0000000000000000 Ga
   0.5000000000000000    0.5000000000000000    0.5000000000000000 Ga
   0.5000000000000000    0.5000000000000000    0.0000000000000000 Ga
   0.0000000000000000    0.0000000000000000    0.5000000000000000 Ga
   0.0000000000000000    0.5000000000000000    0.2500000000000000 Ga
   0.5000000000000000    0.0000000000000000    0.2500000000000000 Ga
   0.0000000000000000    0.5000000000000000    0.7500000000000000 Ga
   0.5000000000000000    0.0000000000000000    0.7500000000000000 Ga
