Li6 Mn2 F10
1.0
   6.6823644319775068    0.0000000000000000   -4.8024292873404351
  -0.0007084769143096    5.5566505815383715   -0.0003632971789394
   0.0000000000000000    0.0000000000000000    5.6221499443054199
Li F Mn
6 10 2
direct
   0.1594238281250000    0.0000000000000000    0.3851318359375000 Li
   0.6594238281250000    0.5000000000000000    0.3851318359375000 Li
   0.8342895507812500    0.0000000000000000    0.7152357101440430 Li
   0.3342895507812500    0.5000000000000000    0.7152357101440430 Li
   0.6258392333984375    0.0000000000000000    0.9264221191406250 Li
   0.1258392333984375    0.5000000000000000    0.9264221191406250 Li
   0.9102172851562500    0.0000000000000000    0.0933837890625000 F
   0.4102172851562500    0.5000000000000000    0.0933837890625000 F
   0.5249633789062500    0.0000000000000000    0.5495605468750000 F
   0.0249633789062500    0.5000000000000000    0.5495605468750000 F
   0.3261718750000000    0.0000000000000000    0.7456054687500000 F
   0.8261718750000000    0.5000000000000000    0.7456054687500000 F
   0.6975097656250000    0.0000000000000000    0.3137817382812500 F
   0.1975097656250000    0.5000000000000000    0.3137817382812500 F
   0.1248779296875000    0.0000000000000000    0.9418334960937500 F
   0.6248779296875000    0.5000000000000000    0.9418334960937500 F
   0.4006652832031250    0.0000000000000000    0.1385498046875000 Mn
   0.9006652832031250    0.5000000000000000    0.1385498046875000 Mn
