Fe2 S8
1.0
  10.2380144162831055    0.0000000000000000   -4.7694413789513854
  -0.0003644178159162    3.5523500179661087   -0.0002322547940518
   0.0000000000000000    0.0000000000000000    5.0588502883911133
Fe S
2 8
direct
   0.0000000000000000    0.0000000000000000    0.0000000000000000 Fe
   0.5000000000000000    0.5000000000000000    0.0000000000000000 Fe
   0.6202697753906250    0.0000000000000000    0.2682189941406250 S
   0.3797302246093750    0.0000000000000000    0.7317810058593750 S
   0.1202697753906250    0.5000000000000000    0.2682189941406250 S
   0.8797302246093750    0.5000000000000000    0.7317810058593750 S
   0.8778076171875000    0.0000000000000000    0.2075195312500000 S
   0.1221923828125000    0.0000000000000000    0.7924804687500000 S
   0.3778076171875000    0.5000000000000000    0.2075195312500000 S
   0.6221923828125000    0.5000000000000000    0.7924804687500000 S
