K2 I2 O12
1.0
   5.7138495323128682    0.0000000000000000   -0.0003735749384706
  -0.0003735993638246    5.7138495200989938   -0.0003735749384706
   0.0000000000000000    0.0000000000000000    8.4386482238769531
I K O
2 2 12
direct
   0.0000000000000000    0.0000000000000000    0.0000000000000000 I
   0.5000000000000000    0.5000000000000000    0.5000000000000000 I
   0.0000000000000000    0.0000000000000000    0.5000000000000000 K
   0.5000000000000000    0.5000000000000000    0.0000000000000000 K
   0.0000000000000000    0.5000000000000000    0.2500000000000000 O
   0.5000000000000000    0.0000000000000000    0.7500000000000000 O
   0.0000000000000000    0.5000000000000000    0.7500000000000000 O
   0.5000000000000000    0.0000000000000000    0.2500000000000000 O
   0.3259277343750000    0.3259277343750000    0.3889465332031250 O
   0.6740722656250000    0.6740722656250000    0.3889465332031250 O
   0.3259277343750000    0.6740722656250000    0.6110534667968750 O
   0.6740722656250000    0.3259277343750000    0.6110534667968750 O
   0.8259277343750000    0.8259277343750000    0.8889465332031250 O
   0.1740722656250000    0.1740722656250000    0.8889465332031250 O
   0.8259277343750000    0.1740722656250000    0.1110534667968750 O
   0.1740722656250000    0.8259277343750000    0.1110534667968750 O
