Sm1 Er1 N2
1.0
   3.8143505968585298    0.0000000000000000   -0.0002493845491500
  -0.0002494008545957    3.8143505887050075   -0.0002493845491500
   0.0000000000000000    0.0000000000000000    5.6745510101318359
Er N Sm
1 2 1
direct
   0.0000000000000000    0.0000000000000000    0.0000000000000000 Er
   0.0000000000000000    0.0000000000000000    0.5000000000000000 N
   0.5000000000000000    0.5000000000000000    0.0000000000000000 N
   0.5000000000000000    0.5000000000000000    0.5000000000000000 Sm
