Eu2 Mg1 Sb1 Pt1
1.0
   4.1156496913683682    0.0000000000000000   -0.0002690836661912
  -0.0003119283070398    4.7706489359047675   -0.0003119079136450
   0.0000000000000000    0.0000000000000000    6.9845495223999023
Eu Pt Mg Sb Eu
1 1 1 1 1
direct
   0.0000000000000000    0.0000000000000000    0.0219726562500000 Eu
   0.0000000000000000    0.5000000000000000    0.7443237304687500 Pt
   0.5000000000000000    0.5000000000000000    0.8615856170654297 Mg
   0.5000000000000000    0.5000000000000000    0.1374511718750000 Sb
   0.5000000000000000    0.5000000000000000    0.4844665527343750 Eu
