Gd2 Sn16
1.0
   3.9584469710622696    0.0000000000000000   -0.0002588056572528
  -0.0018177290315811   27.8004492524936673   -0.0018176101912420
   0.0000000000000000    0.0000000000000000    3.9584469795227051
Sn Gd Sn
4 2 12
direct
   0.0000000000000000    0.0000000000000000    0.0000000000000000 Sn
   0.5000000000000000    0.5000000000000000    0.0000000000000000 Sn
   0.0000000000000000    0.5000000000000000    0.0000000000000000 Sn
   0.5000000000000000    0.0000000000000000    0.0000000000000000 Sn
   0.0000000000000000    0.0000000000000000    0.5000000000000000 Gd
   0.5000000000000000    0.5000000000000000    0.5000000000000000 Gd
   0.0000000000000000    0.8308105468750000    0.0000000000000000 Sn
   0.0000000000000000    0.1691894531250000    0.0000000000000000 Sn
   0.5000000000000000    0.3308105468750000    0.0000000000000000 Sn
   0.5000000000000000    0.6691894531250000    0.0000000000000000 Sn
   0.0000000000000000    0.7154541015625000    0.5000000000000000 Sn
   0.0000000000000000    0.2845458984375000    0.5000000000000000 Sn
   0.5000000000000000    0.2154541015625000    0.5000000000000000 Sn
   0.5000000000000000    0.7845458984375000    0.5000000000000000 Sn
   0.0000000000000000    0.6164855957031250    0.5000000000000000 Sn
   0.0000000000000000    0.3835144042968750    0.5000000000000000 Sn
   0.5000000000000000    0.1164855957031250    0.5000000000000000 Sn
   0.5000000000000000    0.8835144042968750    0.5000000000000000 Sn
