La8 Mn4
1.0
   5.8448476666459221    0.0000000000000000   -0.0003821396757281
  -0.0003967260062217    6.0675496795671853   -0.0003967000688832
   0.0000000000000000    0.0000000000000000    7.6526508331298828
Mn La
4 8
direct
   0.0000000000000000    0.5000000000000000    0.2500000000000000 Mn
   0.5000000000000000    0.0000000000000000    0.7500000000000000 Mn
   0.0000000000000000    0.5000000000000000    0.7500000000000000 Mn
   0.5000000000000000    0.0000000000000000    0.2500000000000000 Mn
   0.1803894042968750    0.1814117431640625    0.5000000000000000 La
   0.8196105957031250    0.8185882568359375    0.5000000000000000 La
   0.3196105957031250    0.6814117431640625    0.5000000000000000 La
   0.6803894042968750    0.3185882568359375    0.5000000000000000 La
   0.6803894042968750    0.6814117431640625    0.0000000000000000 La
   0.3196105957031250    0.3185882568359375    0.0000000000000000 La
   0.8196105957031250    0.1814117431640625    0.0000000000000000 La
   0.1803894042968750    0.8185882568359375    0.0000000000000000 La
