Li4 Pm8 Ru4
1.0
   7.1810507620871586    0.0000000000000000   -0.0004695014423166
  -0.0004695321396085    7.1810507467370073   -0.0004695014423166
   0.0000000000000000    0.0000000000000000    7.1810507774353027
Ru Li Pm
4 4 8
direct
   0.0000000000000000    0.0000000000000000    0.0000000000000000 Ru
   0.0000000000000000    0.5000000000000000    0.5000000000000000 Ru
   0.5000000000000000    0.0000000000000000    0.5000000000000000 Ru
   0.5000000000000000    0.5000000000000000    0.0000000000000000 Ru
   0.5000000000000000    0.0000000000000000    0.0000000000000000 Li
   0.0000000000000000    0.5000000000000000    0.0000000000000000 Li
   0.0000000000000000    0.0000000000000000    0.5000000000000000 Li
   0.5000000000000000    0.5000000000000000    0.5000000000000000 Li
   0.2500000000000000    0.2500000000000000    0.2500000000000000 Pm
   0.7500000000000000    0.7500000000000000    0.2500000000000000 Pm
   0.7500000000000000    0.2500000000000000    0.7500000000000000 Pm
   0.2500000000000000    0.7500000000000000    0.7500000000000000 Pm
   0.2500000000000000    0.2500000000000000    0.7500000000000000 Pm
   0.7500000000000000    0.7500000000000000    0.7500000000000000 Pm
   0.2500000000000000    0.7500000000000000    0.2500000000000000 Pm
   0.7500000000000000    0.2500000000000000    0.2500000000000000 Pm
