Mn6 Sb2 O16
1.0
   8.9291416332829598    0.0000000000000000   -4.7809944117285132
  -0.0006295018924115    5.7662505636659089   -0.0003770009518420
   0.0000000000000000    0.0000000000000000    5.7924509048461914
Sb Mn O
2 6 16
direct
   0.0000000000000000    0.0000000000000000    0.0000000000000000 Sb
   0.5000000000000000    0.5000000000000000    0.0000000000000000 Sb
   0.5000000000000000    0.0000000000000000    0.5000000000000000 Mn
   0.0000000000000000    0.5000000000000000    0.5000000000000000 Mn
   0.2500000000000000    0.2500000000000000    0.0000000000000000 Mn
   0.7500000000000000    0.2500000000000000    0.0000000000000000 Mn
   0.7500000000000000    0.7500000000000000    0.0000000000000000 Mn
   0.2500000000000000    0.7500000000000000    0.0000000000000000 Mn
   0.7655944824218750    0.0000000000000000    0.7968139648437500 O
   0.2344055175781250    0.0000000000000000    0.2031860351562500 O
   0.2655944824218750    0.5000000000000000    0.7968139648437500 O
   0.7344055175781250    0.5000000000000000    0.2031860351562500 O
   0.7241821289062500    0.0000000000000000    0.1805419921875000 O
   0.2758178710937500    0.0000000000000000    0.8194580078125000 O
   0.2241821289062500    0.5000000000000000    0.1805419921875000 O
   0.7758178710937500    0.5000000000000000    0.8194580078125000 O
   0.9605407714843750    0.2414855957031250    0.2196044921875000 O
   0.0394592285156250    0.2414855957031250    0.7803955078125000 O
   0.0394592285156250    0.7585144042968750    0.7803955078125000 O
   0.9605407714843750    0.7585144042968750    0.2196044921875000 O
   0.4605407714843750    0.7414855957031250    0.2196044921875000 O
   0.5394592285156250    0.7414855957031250    0.7803955078125000 O
   0.5394592285156250    0.2585144042968750    0.7803955078125000 O
   0.4605407714843750    0.2585144042968750    0.2196044921875000 O
