As4 Pt1 O10
1.0
   4.8058963585343264    0.0000000000000000    0.4064132219168274
   1.3910250703455285    6.6862854411675743    2.9262232672451218
   0.0000000000000000    0.0000000000000000    8.3469486236572266
Pt O As
1 10 4
direct
   0.0000000000000000    0.0000000000000000    0.0000000000000000 Pt
   0.4645996093750000    0.5657043457031250    0.7143859863281250 O
   0.5354003906250000    0.4342956542968750    0.2856140136718750 O
   0.2512588500976562    0.2571411132812500    0.9436645507812500 O
   0.7487411499023438    0.7428588867187500    0.0563354492187500 O
   0.7175292968750000    0.3264465332031250    0.0206298828125000 O
   0.2824707031250000    0.6735534667968750    0.9793701171875000 O
   0.7833251953125000    0.6982421875000000    0.4003753662109375 O
   0.2166748046875000    0.3017578125000000    0.5996246337890625 O
   0.7225036621093750    0.1249389648437500    0.7766113281250000 O
   0.2774963378906250    0.8750610351562500    0.2233886718750000 O
   0.4343261718750000    0.3219604492187500    0.7307739257812500 As
   0.5656738281250000    0.6780395507812500    0.2692260742187500 As
   0.6209716796875000    0.6424789428710938    0.8848876953125000 As
   0.3790283203125000    0.3575210571289062    0.1151123046875000 As
