Pm4 Er4 Zn8
1.0
   7.2203492963964759    0.0000000000000000   -0.0004720708042596
  -0.0004721016695435    7.2203492809623206   -0.0004720708042596
   0.0000000000000000    0.0000000000000000    7.2203493118286133
Pm Er Zn
4 4 8
direct
   0.0000000000000000    0.0000000000000000    0.0000000000000000 Pm
   0.0000000000000000    0.5000000000000000    0.5000000000000000 Pm
   0.5000000000000000    0.0000000000000000    0.5000000000000000 Pm
   0.5000000000000000    0.5000000000000000    0.0000000000000000 Pm
   0.5000000000000000    0.0000000000000000    0.0000000000000000 Er
   0.0000000000000000    0.5000000000000000    0.0000000000000000 Er
   0.0000000000000000    0.0000000000000000    0.5000000000000000 Er
   0.5000000000000000    0.5000000000000000    0.5000000000000000 Er
   0.2500000000000000    0.2500000000000000    0.2500000000000000 Zn
   0.7500000000000000    0.7500000000000000    0.2500000000000000 Zn
   0.7500000000000000    0.2500000000000000    0.7500000000000000 Zn
   0.2500000000000000    0.7500000000000000    0.7500000000000000 Zn
   0.2500000000000000    0.2500000000000000    0.7500000000000000 Zn
   0.7500000000000000    0.7500000000000000    0.7500000000000000 Zn
   0.2500000000000000    0.7500000000000000    0.2500000000000000 Zn
   0.7500000000000000    0.2500000000000000    0.2500000000000000 Zn
