Ho2 Cu2 Pb2
1.0
   4.6003522774600931    0.0000000000000000   -0.0003007738144444
  -2.2999151550216981    3.9841726062551288   -0.0003007738144444
   0.0000000000000000    0.0000000000000000    7.3644499778747559
Ho Cu Pb
2 2 2
direct
   0.0000000000000000    0.0000000000000000    0.0000000000000000 Ho
   0.0000000000000000    0.0000000000000000    0.5000000000000000 Ho
   0.3333333432674408    0.6666666865348816    0.2500000000000000 Cu
   0.6666666269302368    0.3333333134651184    0.7500000000000000 Cu
   0.6666666865348816    0.3333333432674408    0.2500000000000000 Pb
   0.3333333134651184    0.6666666269302368    0.7500000000000000 Pb
