Tb3 Er1
1.0
   4.9802527321229810    0.0000000000000000   -0.0003256119359548
  -0.0003256332253562    4.9802527214772363   -0.0003256119359548
   0.0000000000000000    0.0000000000000000    4.9802527427673340
Er Tb
1 3
direct
   0.0000000000000000    0.0000000000000000    0.0000000000000000 Er
   0.5000000000000000    0.5000000000000000    0.0000000000000000 Tb
   0.0000000000000000    0.5000000000000000    0.5000000000000000 Tb
   0.5000000000000000    0.0000000000000000    0.5000000000000000 Tb
