Sr4 Ca2 O12
1.0
   4.9691840484450003    0.0000000000000000   -3.4358560559371600
  -0.0007680189013000    6.1592492446773450   -0.0004026954441977
   0.0000000000000000    0.0000000000000000   10.2071495056152344
Ca O Sr
2 12 4
direct
   0.0000000000000000    0.0000000000000000    0.5000000000000000 Ca
   0.0000000000000000    0.5000000000000000    0.0000000000000000 Ca
   0.3622741699218750    0.1821289062500000    0.5612792968750000 O
   0.6377258300781250    0.6821289062500000    0.9387207031250000 O
   0.6377258300781250    0.8178710937500000    0.4387207031250000 O
   0.3622741699218750    0.3178710937500000    0.0612792968750000 O
   0.9003295898437500    0.5626525878906250    0.7558593750000000 O
   0.0996704101562500    0.0626525878906250    0.7441406250000000 O
   0.0996704101562500    0.4373474121093750    0.2441406250000000 O
   0.9003295898437500    0.9373474121093750    0.2558593750000000 O
   0.2534790039062500    0.6964111328125000    0.5895996093750000 O
   0.7465209960937500    0.1964111328125000    0.9104003906250000 O
   0.7465209960937500    0.3035888671875000    0.4104003906250000 O
   0.2534790039062500    0.8035888671875000    0.0895996093750000 O
   0.7167663574218750    0.5778198242187500    0.2340698242187500 Sr
   0.2832336425781250    0.0778198242187500    0.2659301757812500 Sr
   0.2832336425781250    0.4221801757812500    0.7659301757812500 Sr
   0.7167663574218750    0.9221801757812500    0.7340698242187500 Sr
