K8 Sb4 Au4 Cl24
1.0
  10.7704486616725763    0.0000000000000000   -0.0007041784480552
  -0.0007042244891733   10.7704486386497607   -0.0007041784480552
   0.0000000000000000    0.0000000000000000   10.7704486846923828
Sb Au K Cl
4 4 8 24
direct
   0.0000000000000000    0.0000000000000000    0.0000000000000000 Sb
   0.0000000000000000    0.5000000000000000    0.5000000000000000 Sb
   0.5000000000000000    0.0000000000000000    0.5000000000000000 Sb
   0.5000000000000000    0.5000000000000000    0.0000000000000000 Sb
   0.5000000000000000    0.0000000000000000    0.0000000000000000 Au
   0.0000000000000000    0.5000000000000000    0.0000000000000000 Au
   0.0000000000000000    0.0000000000000000    0.5000000000000000 Au
   0.5000000000000000    0.5000000000000000    0.5000000000000000 Au
   0.2500000000000000    0.2500000000000000    0.2500000000000000 K
   0.7500000000000000    0.7500000000000000    0.2500000000000000 K
   0.7500000000000000    0.2500000000000000    0.7500000000000000 K
   0.2500000000000000    0.7500000000000000    0.7500000000000000 K
   0.2500000000000000    0.2500000000000000    0.7500000000000000 K
   0.7500000000000000    0.7500000000000000    0.7500000000000000 K
   0.2500000000000000    0.7500000000000000    0.2500000000000000 K
   0.7500000000000000    0.2500000000000000    0.2500000000000000 K
   0.2407474517822266    0.0000000000000000    0.0000000000000000 Cl
   0.7592525482177734    0.0000000000000000    0.0000000000000000 Cl
   0.0000000000000000    0.2407474517822266    0.0000000000000000 Cl
   0.0000000000000000    0.7592525482177734    0.0000000000000000 Cl
   0.0000000000000000    0.0000000000000000    0.2407474517822266 Cl
   0.0000000000000000    0.0000000000000000    0.7592525482177734 Cl
   0.2407474517822266    0.5000000000000000    0.5000000000000000 Cl
   0.7592525482177734    0.5000000000000000    0.5000000000000000 Cl
   0.0000000000000000    0.7407474517822266    0.5000000000000000 Cl
   0.0000000000000000    0.2592525482177734    0.5000000000000000 Cl
   0.0000000000000000    0.5000000000000000    0.7407474517822266 Cl
   0.0000000000000000    0.5000000000000000    0.2592525482177734 Cl
   0.7407474517822266    0.0000000000000000    0.5000000000000000 Cl
   0.2592525482177734    0.0000000000000000    0.5000000000000000 Cl
   0.5000000000000000    0.2407474517822266    0.5000000000000000 Cl
   0.5000000000000000    0.7592525482177734    0.5000000000000000 Cl
   0.5000000000000000    0.0000000000000000    0.7407474517822266 Cl
   0.5000000000000000    0.0000000000000000    0.2592525482177734 Cl
   0.7407474517822266    0.5000000000000000    0.0000000000000000 Cl
   0.2592525482177734    0.5000000000000000    0.0000000000000000 Cl
   0.5000000000000000    0.7407474517822266    0.0000000000000000 Cl
   0.5000000000000000    0.2592525482177734    0.0000000000000000 Cl
   0.5000000000000000    0.5000000000000000    0.2407474517822266 Cl
   0.5000000000000000    0.5000000000000000    0.7592525482177734 Cl
