Zr4 Cr6 Ge2
1.0
   4.8230500118168829    0.0000000000000000   -0.0003153339270164
  -2.4112513882805477    4.1770417952184733   -0.0003153339270164
   0.0000000000000000    0.0000000000000000    9.8927478790283203
Ge Zr Cr
2 4 6
direct
   0.0000000000000000    0.0000000000000000    0.0000000000000000 Ge
   0.0000000000000000    0.0000000000000000    0.5000000000000000 Ge
   0.3333333432674408    0.6666666865348816    0.9923553466796875 Zr
   0.6666666269302368    0.3333333134651184    0.4923553466796875 Zr
   0.6666666865348816    0.3333333432674408    0.0076446533203125 Zr
   0.3333333134651184    0.6666666269302368    0.5076446533203125 Zr
   0.0017089843750000    0.5008544921875000    0.2500000000000000 Cr
   0.4991455078125000    0.5008544921875000    0.2500000000000000 Cr
   0.4991455078125000    0.9982910156250000    0.2500000000000000 Cr
   0.9982910156250000    0.4991455078125000    0.7500000000000000 Cr
   0.5008544921875000    0.4991455078125000    0.7500000000000000 Cr
   0.5008544921875000    0.0017089843750000    0.7500000000000000 Cr
