La4 B8 Rh4
1.0
   5.0850505720174040    0.0000000000000000   -0.0003324636821145
  -0.0007967308093381   12.1852454618252732   -0.0007966787202985
   0.0000000000000000    0.0000000000000000    4.2859506607055664
Rh La B
4 4 8
direct
   0.5000000000000000    0.0745849609375000    0.2500000000000000 Rh
   0.5000000000000000    0.9254150390625000    0.7500000000000000 Rh
   0.0000000000000000    0.5745849609375000    0.2500000000000000 Rh
   0.0000000000000000    0.4254150390625000    0.7500000000000000 Rh
   0.0000000000000000    0.8707122802734375    0.2500000000000000 La
   0.0000000000000000    0.1292877197265625    0.7500000000000000 La
   0.5000000000000000    0.3707122802734375    0.2500000000000000 La
   0.5000000000000000    0.6292877197265625    0.7500000000000000 La
   0.5000000000000000    0.8277587890625000    0.0771179199218750 B
   0.5000000000000000    0.1722412109375000    0.5771179199218750 B
   0.5000000000000000    0.8277587890625000    0.4228820800781250 B
   0.5000000000000000    0.1722412109375000    0.9228820800781250 B
   0.0000000000000000    0.3277587890625000    0.0771179199218750 B
   0.0000000000000000    0.6722412109375000    0.5771179199218750 B
   0.0000000000000000    0.3277587890625000    0.4228820800781250 B
   0.0000000000000000    0.6722412109375000    0.9228820800781250 B
