Pr4 In2 Pd4
1.0
   8.0456504649816711    0.0000000000000000   -0.0005260294938489
  -0.0005260638870998    8.0456504477833590   -0.0005260294938489
   0.0000000000000000    0.0000000000000000    3.6702499389648438
In Pd Pr
2 4 4
direct
   0.0000000000000000    0.0000000000000000    0.0000000000000000 In
   0.5000000000000000    0.5000000000000000    0.0000000000000000 In
   0.6245117187500000    0.8754882812500000    0.0000000000000000 Pd
   0.3754882812500000    0.1245117187500000    0.0000000000000000 Pd
   0.1245117187500000    0.6245117187500000    0.0000000000000000 Pd
   0.8754882812500000    0.3754882812500000    0.0000000000000000 Pd
   0.8231811523437500    0.6768188476562500    0.5000000000000000 Pr
   0.1768188476562500    0.3231811523437500    0.5000000000000000 Pr
   0.3231811523437500    0.8231811523437500    0.5000000000000000 Pr
   0.6768188476562500    0.1768188476562500    0.5000000000000000 Pr
