Ca1 Tl3
1.0
   5.1767501720411397    0.0000000000000000   -0.0003384590574290
  -0.0003384811868104    5.1767501609753639   -0.0003384590574290
   0.0000000000000000    0.0000000000000000    5.1767501831054688
Ca Tl
1 3
direct
   0.0000000000000000    0.0000000000000000    0.0000000000000000 Ca
   0.5000000000000000    0.5000000000000000    0.0000000000000000 Tl
   0.0000000000000000    0.5000000000000000    0.5000000000000000 Tl
   0.5000000000000000    0.0000000000000000    0.5000000000000000 Tl
