Np4 Si8
1.0
   4.2073492913921040    0.0000000000000000   -0.0002750790415056
  -0.0002750970269278    4.2073492823985115   -0.0002750790415056
   0.0000000000000000    0.0000000000000000   14.6218519210815430
Np Si
4 8
direct
   0.0000000000000000    0.7500000000000000    0.1250000000000000 Np
   0.5000000000000000    0.2500000000000000    0.6250000000000000 Np
   0.5000000000000000    0.7500000000000000    0.3750000000000000 Np
   0.0000000000000000    0.2500000000000000    0.8750000000000000 Np
   0.0000000000000000    0.7500000000000000    0.7055807113647461 Si
   0.5000000000000000    0.2500000000000000    0.2055807113647461 Si
   0.5000000000000000    0.7500000000000000    0.9555807113647461 Si
   0.0000000000000000    0.2500000000000000    0.4555807113647461 Si
   0.5000000000000000    0.7500000000000000    0.7944192886352539 Si
   0.0000000000000000    0.2500000000000000    0.2944192886352539 Si
   0.0000000000000000    0.7500000000000000    0.5444192886352539 Si
   0.5000000000000000    0.2500000000000000    0.0444192886352539 Si
