Eu6 W3 O18
1.0
   6.0937499869757561    0.0000000000000000   -0.0003984130599810
  -3.0465292874694190    5.2775418713979052   -0.0003984130599810
   0.0000000000000000    0.0000000000000000   17.3728523254394531
W Eu O
3 6 18
direct
   0.0000000000000000    0.0000000000000000    0.0000000000000000 W
   0.6666666865348816    0.3333333432674408    0.3333333432674408 W
   0.3333333432674408    0.6666666865348816    0.6666666865348816 W
   0.0000000000000000    0.0000000000000000    0.6938476562500000 Eu
   0.0000000000000000    0.0000000000000000    0.3061523437500000 Eu
   0.6666666865348816    0.3333333432674408    0.0271810293197632 Eu
   0.6666666865348816    0.3333333432674408    0.6394857168197632 Eu
   0.3333333432674408    0.6666666865348816    0.3605144023895264 Eu
   0.3333333432674408    0.6666666865348816    0.9728190302848816 Eu
   0.6262283325195312    0.5817871093750000    0.2693481445312500 O
   0.4182128906250000    0.0444412231445312    0.2693481445312500 O
   0.9555587768554688    0.3737716674804688    0.2693481445312500 O
   0.3737716674804688    0.4182128906250000    0.7306518554687500 O
   0.5817871093750000    0.9555587768554688    0.7306518554687500 O
   0.0444412231445312    0.6262283325195312    0.7306518554687500 O
   0.2928950786590576    0.9151204824447632    0.6026815176010132 O
   0.0848795771598816    0.3777745664119720    0.6026815176010132 O
   0.6222254633903503    0.7071050405502319    0.6026815176010132 O
   0.0404383540153503    0.7515462636947632    0.0639851987361908 O
   0.2484538555145264    0.2888921201229095    0.0639851987361908 O
   0.7111079096794128    0.9595617055892944    0.0639851987361908 O
   0.9595617055892944    0.2484538555145264    0.9360148310661316 O
   0.7515462636947632    0.7111079096794128    0.9360148310661316 O
   0.2888921201229095    0.0404383540153503    0.9360148310661316 O
   0.7071050405502319    0.0848795771598816    0.3973185420036316 O
   0.9151204824447632    0.6222254633903503    0.3973185420036316 O
   0.3777745664119720    0.2928950786590576    0.3973185420036316 O
