Rb8 Pt4
1.0
   8.4779510316846629    0.0000000000000000   -0.0005542935663789
  -0.0005543298076124    8.4779510135622687   -0.0005542935663789
   0.0000000000000000    0.0000000000000000    8.4779510498046875
Pt Rb
4 8
direct
   0.0000000000000000    0.0000000000000000    0.0000000000000000 Pt
   0.0000000000000000    0.5000000000000000    0.5000000000000000 Pt
   0.5000000000000000    0.0000000000000000    0.5000000000000000 Pt
   0.5000000000000000    0.5000000000000000    0.0000000000000000 Pt
   0.2500000000000000    0.2500000000000000    0.2500000000000000 Rb
   0.7500000000000000    0.7500000000000000    0.2500000000000000 Rb
   0.7500000000000000    0.2500000000000000    0.7500000000000000 Rb
   0.2500000000000000    0.7500000000000000    0.7500000000000000 Rb
   0.2500000000000000    0.2500000000000000    0.7500000000000000 Rb
   0.7500000000000000    0.7500000000000000    0.7500000000000000 Rb
   0.2500000000000000    0.7500000000000000    0.2500000000000000 Rb
   0.7500000000000000    0.2500000000000000    0.2500000000000000 Rb
