Mn4 Sn4 Rh8
1.0
   6.4867486815093311    0.0000000000000000   -0.0004241075523366
  -0.0004241352816515    6.4867486676433144   -0.0004241075523366
   0.0000000000000000    0.0000000000000000    6.4867486953735352
Sn Mn Rh
4 4 8
direct
   0.0000000000000000    0.0000000000000000    0.0000000000000000 Sn
   0.0000000000000000    0.5000000000000000    0.5000000000000000 Sn
   0.5000000000000000    0.0000000000000000    0.5000000000000000 Sn
   0.5000000000000000    0.5000000000000000    0.0000000000000000 Sn
   0.5000000000000000    0.0000000000000000    0.0000000000000000 Mn
   0.0000000000000000    0.5000000000000000    0.0000000000000000 Mn
   0.0000000000000000    0.0000000000000000    0.5000000000000000 Mn
   0.5000000000000000    0.5000000000000000    0.5000000000000000 Mn
   0.2500000000000000    0.2500000000000000    0.2500000000000000 Rh
   0.7500000000000000    0.7500000000000000    0.2500000000000000 Rh
   0.7500000000000000    0.2500000000000000    0.7500000000000000 Rh
   0.2500000000000000    0.7500000000000000    0.7500000000000000 Rh
   0.2500000000000000    0.2500000000000000    0.7500000000000000 Rh
   0.7500000000000000    0.7500000000000000    0.7500000000000000 Rh
   0.2500000000000000    0.7500000000000000    0.2500000000000000 Rh
   0.7500000000000000    0.2500000000000000    0.2500000000000000 Rh
