Lu2 Hf2 F12
1.0
   5.6236130092236447    0.0000000000000000   -2.3470760075017978
  -0.0004514498830512    4.6003522553088549   -0.0003007738144444
   0.0000000000000000    0.0000000000000000    8.8709506988525391
F Lu Hf
12 2 2
direct
   0.1757202148437500    0.1373291015625000    0.2634277343750000 F
   0.8242797851562500    0.6373291015625000    0.7365722656250000 F
   0.4831085205078125    0.2583007812500000    0.7552490234375000 F
   0.5168914794921875    0.7583007812500000    0.2447509765625000 F
   0.5817871093750000    0.2174072265625000    0.4647216796875000 F
   0.4182128906250000    0.7174072265625000    0.5352783203125000 F
   0.9697875976562500    0.5949707031250000    0.4190063476562500 F
   0.0302124023437500    0.0949707031250000    0.5809936523437500 F
   0.9749145507812500    0.1818847656250000    0.9408807754516602 F
   0.0250854492187500    0.6818847656250000    0.0591192245483398 F
   0.4170532226562500    0.7248535156250000    0.9308471679687500 F
   0.5829467773437500    0.2248535156250000    0.0691528320312500 F
   0.2615814208984375    0.3212280273437500    0.4951629638671875 Lu
   0.7384185791015625    0.8212280273437500    0.5048370361328125 Lu
   0.2897338867187500    0.0001602172851562    0.0788269042968750 Hf
   0.7102661132812500    0.5001602172851562    0.9211730957031250 Hf
