Ho4 Cu4 Pb4 S12
1.0
   3.9977497969060019    0.0000000000000000   -0.0002613752997789
  -0.0008823854653821   13.4952525515620341   -0.0008823277763723
   0.0000000000000000    0.0000000000000000   10.5346488952636719
S Cu Ho Pb
12 4 4 4
direct
   0.0000000000000000    0.5793457031250000    0.9081687927246094 S
   0.0000000000000000    0.4206542968750000    0.4081687927246094 S
   0.5000000000000000    0.0793457031250000    0.9081687927246094 S
   0.5000000000000000    0.9206542968750000    0.4081687927246094 S
   0.0000000000000000    0.6508483886718750    0.5406494140625000 S
   0.0000000000000000    0.3491516113281250    0.0406494140625000 S
   0.5000000000000000    0.1508483886718750    0.5406494140625000 S
   0.5000000000000000    0.8491516113281250    0.0406494140625000 S
   0.0000000000000000    0.1221313476562500    0.2539672851562500 S
   0.0000000000000000    0.8778686523437500    0.7539672851562500 S
   0.5000000000000000    0.6221313476562500    0.2539672851562500 S
   0.5000000000000000    0.3778686523437500    0.7539672851562500 S
   0.0000000000000000    0.9578552246093750    0.9505615234375000 Cu
   0.0000000000000000    0.0421447753906250    0.4505615234375000 Cu
   0.5000000000000000    0.4578552246093750    0.9505615234375000 Cu
   0.5000000000000000    0.5421447753906250    0.4505615234375000 Cu
   0.0000000000000000    0.4931640625000000    0.6643676757812500 Ho
   0.0000000000000000    0.5068359375000000    0.1643676757812500 Ho
   0.5000000000000000    0.9931640625000000    0.6643676757812500 Ho
   0.5000000000000000    0.0068359375000000    0.1643676757812500 Ho
   0.5000000000000000    0.7319335937500000    0.8233642578125000 Pb
   0.5000000000000000    0.2680664062500000    0.3233642578125000 Pb
   0.0000000000000000    0.2319335937500000    0.8233642578125000 Pb
   0.0000000000000000    0.7680664062500000    0.3233642578125000 Pb
