Mn4 V2 C2 F14
1.0
   8.3278090061702947    0.0000000000000000   -3.3483904956239976
  -0.0006301625532868    6.5129494222993269   -0.0004258205746103
   0.0000000000000000    0.0000000000000000    7.3775482177734375
C F V Mn F
2 6 2 4 8
direct
   0.7365722656250000    0.0000000000000000    0.7719726562500000 C
   0.2365722656250000    0.5000000000000000    0.7719726562500000 C
   0.4268188476562500    0.0000000000000000    0.0661621093750000 F
   0.9268188476562500    0.5000000000000000    0.0661621093750000 F
   0.5971679687500000    0.0000000000000000    0.5794372558593750 F
   0.0971679687500000    0.5000000000000000    0.5794372558593750 F
   0.9577636718750000    0.0000000000000000    0.8106994628906250 F
   0.4577636718750000    0.5000000000000000    0.8106994628906250 F
   0.1872558593750000    0.0000000000000000    0.8364257812500000 V
   0.6872558593750000    0.5000000000000000    0.8364257812500000 V
   0.6793212890625000    0.0000000000000000    0.1306152343750000 Mn
   0.1793212890625000    0.5000000000000000    0.1306152343750000 Mn
   0.3741455078125000    0.0000000000000000    0.3420410156250000 Mn
   0.8741455078125000    0.5000000000000000    0.3420410156250000 Mn
   0.2247314453125000    0.2433471679687500    0.3072509765625000 F
   0.2247314453125000    0.7566528320312500    0.3072509765625000 F
   0.7247314453125000    0.7433471679687500    0.3072509765625000 F
   0.7247314453125000    0.2566528320312500    0.3072509765625000 F
   0.7297363281250000    0.1707763671875000    0.8818359375000000 F
   0.7297363281250000    0.8292236328125000    0.8818359375000000 F
   0.2297363281250000    0.6707763671875000    0.8818359375000000 F
   0.2297363281250000    0.3292236328125000    0.8818359375000000 F
