Bi4 Te8
1.0
  10.0210108136741312    0.0000000000000000   -1.5596188794567087
  -0.0003012008452619    3.9453525343915219   -0.0002579495358147
   0.0000000000000000    0.0000000000000000    9.6176490783691406
Te Bi
8 4
direct
   0.8294372558593750    0.0000000000000000    0.8942718505859375 Te
   0.1705627441406250    0.0000000000000000    0.1057281494140625 Te
   0.3294372558593750    0.5000000000000000    0.8942718505859375 Te
   0.6705627441406250    0.5000000000000000    0.1057281494140625 Te
   0.8322677612304688    0.0000000000000000    0.4046020507812500 Te
   0.1677322387695312    0.0000000000000000    0.5953979492187500 Te
   0.3322677612304688    0.5000000000000000    0.4046020507812500 Te
   0.6677322387695312    0.5000000000000000    0.5953979492187500 Te
   0.4938964843750000    0.0000000000000000    0.2435913085937500 Bi
   0.5061035156250000    0.0000000000000000    0.7564086914062500 Bi
   0.9938964843750000    0.5000000000000000    0.2435913085937500 Bi
   0.0061035156250000    0.5000000000000000    0.7564086914062500 Bi
