Ca9 Mg1 I6
1.0
   4.2335538773651500    0.0000000000000000   -0.0002767923131865
  -2.1165367639038259    3.6665038605730418   -0.0002767923131865
   0.0000000000000000    0.0000000000000000   29.3724479675292969
Mg Ca I
1 9 6
direct
   0.0000000000000000    0.0000000000000000    0.0000000000000000 Mg
   0.0000000000000000    0.0000000000000000    0.5000000000000000 Ca
   0.0000000000000000    0.0000000000000000    0.8209838867187500 Ca
   0.0000000000000000    0.0000000000000000    0.1790161132812500 Ca
   0.0000000000000000    0.0000000000000000    0.3731002807617188 Ca
   0.0000000000000000    0.0000000000000000    0.6268997192382812 Ca
   0.6666666865348816    0.3333333432674408    0.2493286132812500 Ca
   0.3333333432674408    0.6666666865348816    0.7506713867187500 Ca
   0.6666666865348816    0.3333333432674408    0.8809814453125000 Ca
   0.3333333432674408    0.6666666865348816    0.1190185546875000 Ca
   0.6666666865348816    0.3333333432674408    0.4361801147460938 I
   0.3333333432674408    0.6666666865348816    0.5638198852539062 I
   0.6666666865348816    0.3333333432674408    0.6862792968750000 I
   0.3333333432674408    0.6666666865348816    0.3137207031250000 I
   0.6666666865348816    0.3333333432674408    0.0551147460937500 I
   0.3333333432674408    0.6666666865348816    0.9448852539062500 I
