Na18 C36
1.0
   7.0762491074954781    0.0000000000000000   -0.0004626494467496
  -3.5377231093317714    6.1284432471085593   -0.0004626494467496
   0.0000000000000000    0.0000000000000000   19.3902473449707031
Na C
18 36
direct
   0.0000000000000000    0.0000000000000000    0.0000000000000000 Na
   0.6666666865348816    0.3333333432674408    0.3333333432674408 Na
   0.3333333432674408    0.6666666865348816    0.6666666865348816 Na
   0.3333333432674408    0.6666666865348816    0.1666666716337204 Na
   0.6666666865348816    0.3333333432674408    0.8333333134651184 Na
   0.0000000000000000    0.0000000000000000    0.5000000000000000 Na
   0.0000000000000000    0.0000000000000000    0.8287506103515625 Na
   0.0000000000000000    0.0000000000000000    0.1712493896484375 Na
   0.6666666865348816    0.3333333432674408    0.1620839834213257 Na
   0.6666666865348816    0.3333333432674408    0.5045827627182007 Na
   0.3333333432674408    0.6666666865348816    0.4954173564910889 Na
   0.3333333432674408    0.6666666865348816    0.8379160761833191 Na
   0.0000000000000000    0.0000000000000000    0.6728515625000000 Na
   0.0000000000000000    0.0000000000000000    0.3271484375000000 Na
   0.6666666865348816    0.3333333432674408    0.0061849355697632 Na
   0.6666666865348816    0.3333333432674408    0.6604818105697632 Na
   0.3333333432674408    0.6666666865348816    0.3395183086395264 Na
   0.3333333432674408    0.6666666865348816    0.9938151240348816 Na
   0.6690063476562500    0.6733093261718750    0.7852172851562500 C
   0.3266906738281250    0.9956970214843750    0.7852172851562500 C
   0.0043029785156250    0.3309936523437500    0.7852172851562500 C
   0.6733093261718750    0.6690063476562500    0.2147827148437500 C
   0.9956970214843750    0.3266906738281250    0.2147827148437500 C
   0.3309936523437500    0.0043029785156250    0.2147827148437500 C
   0.3356730937957764    0.0066426992416382    0.1185506582260132 C
   0.9933573603630066    0.3290303647518158    0.1185506582260132 C
   0.6709696650505066    0.6643270254135132    0.1185506582260132 C
   0.3399760723114014    0.0023397207260132    0.5481160879135132 C
   0.6623637080192566    0.6600240468978882    0.5481160879135132 C
   0.9976603388786316    0.3376363217830658    0.5481160879135132 C
   0.0023397207260132    0.3399760723114014    0.4518840312957764 C
   0.6600240468978882    0.6623637080192566    0.4518840312957764 C
   0.3376363217830658    0.9976603388786316    0.4518840312957764 C
   0.0066426992416382    0.3356730937957764    0.8814494013786316 C
   0.3290303647518158    0.9933573603630066    0.8814494013786316 C
   0.6643270254135132    0.6709696650505066    0.8814494013786316 C
   0.6620788574218750    0.6677551269531250    0.7146606445312500 C
   0.3322448730468750    0.9943237304687500    0.7146606445312500 C
   0.0056762695312500    0.3379211425781250    0.7146606445312500 C
   0.6677551269531250    0.6620788574218750    0.2853393554687500 C
   0.9943237304687500    0.3322448730468750    0.2853393554687500 C
   0.3379211425781250    0.0056762695312500    0.2853393554687500 C
   0.3287456035614014    0.0010885000228882    0.0479940176010132 C
   0.9989115595817566    0.3276570737361908    0.0479940176010132 C
   0.6723429560661316    0.6712545156478882    0.0479940176010132 C
   0.3344218730926514    0.9954122304916382    0.6186727285385132 C
   0.6609904170036316    0.6655782461166382    0.6186727285385132 C
   0.0045878291130066    0.3390096127986908    0.6186727285385132 C
   0.9954122304916382    0.3344218730926514    0.3813273906707764 C
   0.6655782461166382    0.6609904170036316    0.3813273906707764 C
   0.3390096127986908    0.0045878291130066    0.3813273906707764 C
   0.0010885000228882    0.3287456035614014    0.9520060420036316 C
   0.3276570737361908    0.9989115595817566    0.9520060420036316 C
   0.6712545156478882    0.6723429560661316    0.9520060420036316 C
