Nd8 Sn22 Ge2
1.0
   8.0587482280152010    0.0000000000000000   -0.0005268858335183
  -0.0014699729064320   22.4818476669538043   -0.0014698768018556
   0.0000000000000000    0.0000000000000000    5.2029504776000977
Ge Sn Nd Sn Nd Sn
2 2 4 4 4 16
direct
   0.0000000000000000    0.0000000000000000    0.0000000000000000 Ge
   0.5000000000000000    0.5000000000000000    0.0000000000000000 Ge
   0.0000000000000000    0.5000000000000000    0.5000000000000000 Sn
   0.5000000000000000    0.0000000000000000    0.5000000000000000 Sn
   0.0000000000000000    0.3946685791015625    0.0000000000000000 Nd
   0.0000000000000000    0.6053314208984375    0.0000000000000000 Nd
   0.5000000000000000    0.8946685791015625    0.0000000000000000 Nd
   0.5000000000000000    0.1053314208984375    0.0000000000000000 Nd
   0.0000000000000000    0.6788330078125000    0.5000000000000000 Sn
   0.0000000000000000    0.3211669921875000    0.5000000000000000 Sn
   0.5000000000000000    0.1788330078125000    0.5000000000000000 Sn
   0.5000000000000000    0.8211669921875000    0.5000000000000000 Sn
   0.0000000000000000    0.0000000000000000    0.7197723388671875 Nd
   0.0000000000000000    0.0000000000000000    0.2802276611328125 Nd
   0.5000000000000000    0.5000000000000000    0.7197723388671875 Nd
   0.5000000000000000    0.5000000000000000    0.2802276611328125 Nd
   0.3350830078125000    0.3048706054687500    0.5000000000000000 Sn
   0.6649169921875000    0.6951293945312500    0.5000000000000000 Sn
   0.6649169921875000    0.3048706054687500    0.5000000000000000 Sn
   0.3350830078125000    0.6951293945312500    0.5000000000000000 Sn
   0.8350830078125000    0.8048706054687500    0.5000000000000000 Sn
   0.1649169921875000    0.1951293945312500    0.5000000000000000 Sn
   0.1649169921875000    0.8048706054687500    0.5000000000000000 Sn
   0.8350830078125000    0.1951293945312500    0.5000000000000000 Sn
   0.7456359863281250    0.9193115234375000    0.5000000000000000 Sn
   0.2543640136718750    0.0806884765625000    0.5000000000000000 Sn
   0.2543640136718750    0.9193115234375000    0.5000000000000000 Sn
   0.7456359863281250    0.0806884765625000    0.5000000000000000 Sn
   0.2456359863281250    0.4193115234375000    0.5000000000000000 Sn
   0.7543640136718750    0.5806884765625000    0.5000000000000000 Sn
   0.7543640136718750    0.4193115234375000    0.5000000000000000 Sn
   0.2456359863281250    0.5806884765625000    0.5000000000000000 Sn
