Tb2 F6
1.0
   3.6833481709910618    0.0000000000000000   -0.0002408195313094
  -0.0002408352767508    3.6833481631175693   -0.0002408195313094
   0.0000000000000000    0.0000000000000000    7.2596483230590820
Tb F
2 6
direct
   0.0000000000000000    0.0000000000000000    0.0000000000000000 Tb
   0.5000000000000000    0.5000000000000000    0.5000000000000000 Tb
   0.5000000000000000    0.5000000000000000    0.0000000000000000 F
   0.0000000000000000    0.0000000000000000    0.5000000000000000 F
   0.0000000000000000    0.5000000000000000    0.2500000000000000 F
   0.5000000000000000    0.0000000000000000    0.2500000000000000 F
   0.0000000000000000    0.5000000000000000    0.7500000000000000 F
   0.5000000000000000    0.0000000000000000    0.7500000000000000 F
