Be4 Ni4
1.0
   2.5567486231517642    0.0000000000000000   -0.0001671617714427
  -0.0005046503166227    7.7181501058606372   -0.0005046173233582
   0.0000000000000000    0.0000000000000000    3.0021483898162842
Be Ni
4 4
direct
   0.0000000000000000    0.7744750976562500    0.2500000000000000 Be
   0.0000000000000000    0.2255249023437500    0.7500000000000000 Be
   0.5000000000000000    0.2744750976562500    0.2500000000000000 Be
   0.5000000000000000    0.7255249023437500    0.7500000000000000 Be
   0.5000000000000000    0.5943222045898438    0.2500000000000000 Ni
   0.5000000000000000    0.4056777954101562    0.7500000000000000 Ni
   0.0000000000000000    0.0943222045898438    0.2500000000000000 Ni
   0.0000000000000000    0.9056777954101562    0.7500000000000000 Ni
