Eu4 Ti8 O20
1.0
   8.3338701233009829    0.0000000000000000   -5.9612409908116941
  -0.0009847101448777    7.7443503541935534   -0.0005063303144559
   0.0000000000000000    0.0000000000000000    6.9845495223999023
Ti O Ti Eu
4 20 4 4
direct
   0.0000000000000000    0.7946777343750000    0.0000000000000000 Ti
   0.5000000000000000    0.2946777343750000    0.0000000000000000 Ti
   0.5000000000000000    0.2711791992187500    0.5000000000000000 Ti
   0.0000000000000000    0.7711791992187500    0.5000000000000000 Ti
   0.8829345703125000    0.9381408691406250    0.7495117187500000 O
   0.1170654296875000    0.9381408691406250    0.2504882812500000 O
   0.3829345703125000    0.4381408691406250    0.7495117187500000 O
   0.6170654296875000    0.4381408691406250    0.2504882812500000 O
   0.3999023437500000    0.7986297607421875    0.7625122070312500 O
   0.6000976562500000    0.7986297607421875    0.2374877929687500 O
   0.8999023437500000    0.2986297607421875    0.7625122070312500 O
   0.1000976562500000    0.2986297607421875    0.2374877929687500 O
   0.6463623046875000    0.3564453125000000    0.7593994140625000 O
   0.3536376953125000    0.3564453125000000    0.2406005859375000 O
   0.1463623046875000    0.8564453125000000    0.7593994140625000 O
   0.8536376953125000    0.8564453125000000    0.2406005859375000 O
   0.8974609375000000    0.6176757812500000    0.5534362792968750 O
   0.1025390625000000    0.6176757812500000    0.4465637207031250 O
   0.3974609375000000    0.1176757812500000    0.5534362792968750 O
   0.6025390625000000    0.1176757812500000    0.4465637207031250 O
   0.1497192382812500    0.6268920898437500    0.1140136718750000 O
   0.8502807617187500    0.6268920898437500    0.8859863281250000 O
   0.6497192382812500    0.1268920898437500    0.1140136718750000 O
   0.3502807617187500    0.1268920898437500    0.8859863281250000 O
   0.2111816406250000    0.4772338867187500    0.3626098632812500 Ti
   0.7888183593750000    0.4772338867187500    0.6373901367187500 Ti
   0.7111816406250000    0.9772338867187500    0.3626098632812500 Ti
   0.2888183593750000    0.9772338867187500    0.6373901367187500 Ti
   0.6436462402343750    0.6328125000000000    0.9687500000000000 Eu
   0.3563537597656250    0.6328125000000000    0.0312500000000000 Eu
   0.1436462402343750    0.1328125000000000    0.9687500000000000 Eu
   0.8563537597656250    0.1328125000000000    0.0312500000000000 Eu
