Ba2 Cu4 Se4
1.0
   3.9715492640487926    0.0000000000000000   -0.0002596622930932
  -0.0002596792705261    3.9715492555592440   -0.0002596622930932
   0.0000000000000000    0.0000000000000000   12.5258474349975586
Ba Cu Se
2 4 4
direct
   0.0000000000000000    0.0000000000000000    0.0000000000000000 Ba
   0.5000000000000000    0.5000000000000000    0.5000000000000000 Ba
   0.0000000000000000    0.5000000000000000    0.2500000000000000 Cu
   0.5000000000000000    0.0000000000000000    0.2500000000000000 Cu
   0.0000000000000000    0.5000000000000000    0.7500000000000000 Cu
   0.5000000000000000    0.0000000000000000    0.7500000000000000 Cu
   0.5000000000000000    0.5000000000000000    0.1378288269042969 Se
   0.5000000000000000    0.5000000000000000    0.8621711730957031 Se
   0.0000000000000000    0.0000000000000000    0.6378288269042969 Se
   0.0000000000000000    0.0000000000000000    0.3621711730957031 Se
