Se8 Br8 F4
1.0
   7.0762491074954781    0.0000000000000000   -0.0004626494467496
  -0.0006322750320472    9.6700496260198729   -0.0006322336948743
   0.0000000000000000    0.0000000000000000    7.1417522430419922
F Se Br
4 8 8
direct
   0.5000000000000000    0.0000000000000000    0.0000000000000000 F
   0.0000000000000000    0.0000000000000000    0.5000000000000000 F
   0.5000000000000000    0.5000000000000000    0.0000000000000000 F
   0.0000000000000000    0.5000000000000000    0.5000000000000000 F
   0.5912017822265625    0.2500000000000000    0.0586242675781250 Se
   0.9087982177734375    0.7500000000000000    0.5586242675781250 Se
   0.4087982177734375    0.7500000000000000    0.9413757324218750 Se
   0.0912017822265625    0.2500000000000000    0.4413757324218750 Se
   0.9402465820312500    0.2500000000000000    0.1328125000000000 Se
   0.5597534179687500    0.7500000000000000    0.6328125000000000 Se
   0.0597534179687500    0.7500000000000000    0.8671875000000000 Se
   0.4402465820312500    0.2500000000000000    0.3671875000000000 Se
   0.8728027343750000    0.9153976440429688    0.1351165771484375 Br
   0.6271972656250000    0.0846023559570312    0.6351165771484375 Br
   0.1271972656250000    0.4153976440429688    0.8648834228515625 Br
   0.3728027343750000    0.5846023559570312    0.3648834228515625 Br
   0.1271972656250000    0.0846023559570312    0.8648834228515625 Br
   0.3728027343750000    0.9153976440429688    0.3648834228515625 Br
   0.8728027343750000    0.5846023559570312    0.1351165771484375 Br
   0.6271972656250000    0.4153976440429688    0.6351165771484375 Br
