Mn4 H6 S6 O20
1.0
   8.5884792338959564    0.0000000000000000   -4.2109385073308845
  -0.0006857770960571    6.5391497112641641   -0.0004275335657081
   0.0000000000000000    0.0000000000000000    7.7836494445800781
H O S O Mn
6 12 6 8 4
direct
   0.9194335937500000    0.0000000000000000    0.0738830566406250 H
   0.4194335937500000    0.5000000000000000    0.0738830566406250 H
   0.8200683593750000    0.0000000000000000    0.8830871582031250 H
   0.3200683593750000    0.5000000000000000    0.8830871582031250 H
   0.3024902343750000    0.0000000000000000    0.9497070312500000 H
   0.8024902343750000    0.5000000000000000    0.9497070312500000 H
   0.0477294921875000    0.0000000000000000    0.5845336914062500 O
   0.5477294921875000    0.5000000000000000    0.5845336914062500 O
   0.4880371093750000    0.0000000000000000    0.5083007812500000 O
   0.9880371093750000    0.5000000000000000    0.5083007812500000 O
   0.8806152343750000    0.0000000000000000    0.0181965827941895 O
   0.3806152343750000    0.5000000000000000    0.0181965827941895 O
   0.3841552734375000    0.0000000000000000    0.9270629882812500 O
   0.8841552734375000    0.5000000000000000    0.9270629882812500 O
   0.6324462890625000    0.0000000000000000    0.2545166015625000 O
   0.1324462890625000    0.5000000000000000    0.2545166015625000 O
   0.1911621093750000    0.0000000000000000    0.3350601196289062 O
   0.6911621093750000    0.5000000000000000    0.3350601196289062 O
   0.6291503906250000    0.0000000000000000    0.4605712890625000 S
   0.1291503906250000    0.5000000000000000    0.4605712890625000 S
   0.5584106445312500    0.0000000000000000    0.0017089843750000 S
   0.0584106445312500    0.5000000000000000    0.0017089843750000 S
   0.1627197265625000    0.0000000000000000    0.5060424804687500 S
   0.6627197265625000    0.5000000000000000    0.5060424804687500 S
   0.2196044921875000    0.6991348266601562    0.5632324218750000 O
   0.2196044921875000    0.3008651733398438    0.5632324218750000 O
   0.7196044921875000    0.1991348266601562    0.5632324218750000 O
   0.7196044921875000    0.8008651733398438    0.5632324218750000 O
   0.5829772949218750    0.7938537597656250    0.9104003906250000 O
   0.5829772949218750    0.2061462402343750    0.9104003906250000 O
   0.0829772949218750    0.2938537597656250    0.9104003906250000 O
   0.0829772949218750    0.7061462402343750    0.9104003906250000 O
   0.9468994140625000    0.7507781982421875    0.6421508789062500 Mn
   0.9468994140625000    0.2492218017578125    0.6421508789062500 Mn
   0.4468994140625000    0.2507781982421875    0.6421508789062500 Mn
   0.4468994140625000    0.7492218017578125    0.6421508789062500 Mn
