Lu1 Bi2 Br1 O4
1.0
   3.5654520912259526    0.0000000000000000   -0.0002331114143043
  -0.0002331266557679    3.5654520836044736   -0.0002331114143043
   0.0000000000000000    0.0000000000000000    8.7006530761718750
Lu Br Bi O
1 1 2 4
direct
   0.0000000000000000    0.0000000000000000    0.0000000000000000 Lu
   0.0000000000000000    0.0000000000000000    0.5000000000000000 Br
   0.5000000000000000    0.5000000000000000    0.2799987792968750 Bi
   0.5000000000000000    0.5000000000000000    0.7200012207031250 Bi
   0.0000000000000000    0.5000000000000000    0.8586425781250000 O
   0.5000000000000000    0.0000000000000000    0.8586425781250000 O
   0.0000000000000000    0.5000000000000000    0.1413574218750000 O
   0.5000000000000000    0.0000000000000000    0.1413574218750000 O
