Nd8 Al4 Ag4
1.0
   7.8098497223826229    0.0000000000000000   -0.0005106126986726
  -0.0005106460839312    7.8098497056883565   -0.0005106126986726
   0.0000000000000000    0.0000000000000000    7.8098497390747070
Ag Al Nd
4 4 8
direct
   0.0000000000000000    0.0000000000000000    0.0000000000000000 Ag
   0.0000000000000000    0.5000000000000000    0.5000000000000000 Ag
   0.5000000000000000    0.0000000000000000    0.5000000000000000 Ag
   0.5000000000000000    0.5000000000000000    0.0000000000000000 Ag
   0.5000000000000000    0.0000000000000000    0.0000000000000000 Al
   0.0000000000000000    0.5000000000000000    0.0000000000000000 Al
   0.0000000000000000    0.0000000000000000    0.5000000000000000 Al
   0.5000000000000000    0.5000000000000000    0.5000000000000000 Al
   0.2500000000000000    0.2500000000000000    0.2500000000000000 Nd
   0.7500000000000000    0.7500000000000000    0.2500000000000000 Nd
   0.7500000000000000    0.2500000000000000    0.7500000000000000 Nd
   0.2500000000000000    0.7500000000000000    0.7500000000000000 Nd
   0.2500000000000000    0.2500000000000000    0.7500000000000000 Nd
   0.7500000000000000    0.7500000000000000    0.7500000000000000 Nd
   0.2500000000000000    0.7500000000000000    0.2500000000000000 Nd
   0.7500000000000000    0.2500000000000000    0.2500000000000000 Nd
