Ta6 Nb3 C12
1.0
   2.9628496106718614    0.0000000000000000   -0.0001937128996388
  -1.4812567191912107    2.5660000676752315   -0.0001937128996388
   0.0000000000000000    0.0000000000000000   35.2281494140625000
Nb C Ta
3 12 6
direct
   0.0000000000000000    0.0000000000000000    0.0000000000000000 Nb
   0.6666666865348816    0.3333333432674408    0.3333333432674408 Nb
   0.3333333432674408    0.6666666865348816    0.6666666865348816 Nb
   0.0000000000000000    0.0000000000000000    0.2907562255859375 C
   0.0000000000000000    0.0000000000000000    0.7092437744140625 C
   0.6666666865348816    0.3333333432674408    0.6240895986557007 C
   0.6666666865348816    0.3333333432674408    0.0425771176815033 C
   0.3333333432674408    0.6666666865348816    0.9574229121208191 C
   0.3333333432674408    0.6666666865348816    0.3759104609489441 C
   0.6666666865348816    0.3333333432674408    0.4530029296875000 C
   0.3333333432674408    0.6666666865348816    0.5469970703125000 C
   0.3333333730697632    0.6666666865348816    0.7863363027572632 C
   0.0000000000000000    0.0000000000000000    0.8803304433822632 C
   0.0000000000000000    0.0000000000000000    0.1196696758270264 C
   0.6666666865348816    0.3333333730697632    0.2136637568473816 C
   0.3333333432674408    0.6666666865348816    0.0881347656250000 Ta
   0.6666666865348816    0.3333333432674408    0.9118652343750000 Ta
   0.0000000000000000    0.0000000000000000    0.4214681088924408 Ta
   0.3333333730697632    0.6666666865348816    0.2451985776424408 Ta
   0.6666666865348816    0.3333333730697632    0.7548014521598816 Ta
   0.0000000000000000    0.0000000000000000    0.5785319209098816 Ta
