Er4 Fe8
1.0
   5.3994521979323435    0.0000000000000000   -0.0003530194505841
  -2.6994197813251142    4.6762396091247389   -0.0003530194505841
   0.0000000000000000    0.0000000000000000    8.8316516876220703
Fe Er Fe
2 4 6
direct
   0.0000000000000000    0.0000000000000000    0.0000000000000000 Fe
   0.0000000000000000    0.0000000000000000    0.5000000000000000 Fe
   0.6666666865348816    0.3333333432674408    0.9936523437500000 Er
   0.3333333134651184    0.6666666269302368    0.4936523437500000 Er
   0.3333333432674408    0.6666666865348816    0.0063476562500000 Er
   0.6666666269302368    0.3333333134651184    0.5063476562500000 Er
   0.5021667480468750    0.4978332519531250    0.2500000000000000 Fe
   0.5021667480468750    0.0043334960937500    0.2500000000000000 Fe
   0.9956665039062500    0.4978332519531250    0.2500000000000000 Fe
   0.4978332519531250    0.5021667480468750    0.7500000000000000 Fe
   0.4978332519531250    0.9956665039062500    0.7500000000000000 Fe
   0.0043334960937500    0.5021667480468750    0.7500000000000000 Fe
