Ti4 Br2 N2
1.0
   3.6571516912496889    0.0000000000000000   -0.0002391067896188
  -0.0002391224230765    3.6571516834321933   -0.0002391067896188
   0.0000000000000000    0.0000000000000000   12.4472503662109375
N Br Ti
2 2 4
direct
   0.0000000000000000    0.0000000000000000    0.0000000000000000 N
   0.5000000000000000    0.5000000000000000    0.5000000000000000 N
   0.5000000000000000    0.5000000000000000    0.0000000000000000 Br
   0.0000000000000000    0.0000000000000000    0.5000000000000000 Br
   0.0000000000000000    0.5000000000000000    0.2500000000000000 Ti
   0.5000000000000000    0.0000000000000000    0.2500000000000000 Ti
   0.0000000000000000    0.5000000000000000    0.7500000000000000 Ti
   0.5000000000000000    0.0000000000000000    0.7500000000000000 Ti
