Cr2 Pt6
1.0
   3.5785465163993821    0.0000000000000000   -0.0002339675357424
  -0.0002339828331815    3.5785465087499126   -0.0002339675357424
   0.0000000000000000    0.0000000000000000    6.9190464019775391
Cr Pt
2 6
direct
   0.0000000000000000    0.0000000000000000    0.0000000000000000 Cr
   0.5000000000000000    0.5000000000000000    0.5000000000000000 Cr
   0.5000000000000000    0.5000000000000000    0.0000000000000000 Pt
   0.0000000000000000    0.0000000000000000    0.5000000000000000 Pt
   0.0000000000000000    0.5000000000000000    0.2500000000000000 Pt
   0.5000000000000000    0.0000000000000000    0.2500000000000000 Pt
   0.0000000000000000    0.5000000000000000    0.7500000000000000 Pt
   0.5000000000000000    0.0000000000000000    0.7500000000000000 Pt
