Ba4 Gd8 Br4 Cl16
1.0
   6.7332953517110852    0.0000000000000000   -1.1293352283970095
  -0.0008877876922357   11.4909476645338078   -0.0007512851109016
   0.0000000000000000    0.0000000000000000   12.9712514877319336
Br Ba Cl Gd
4 4 16 8
direct
   0.5000000000000000    0.5636291503906250    0.2500000000000000 Br
   0.5000000000000000    0.4363708496093750    0.7500000000000000 Br
   0.0000000000000000    0.0636291503906250    0.2500000000000000 Br
   0.0000000000000000    0.9363708496093750    0.7500000000000000 Br
   0.5000000000000000    0.0187377929687500    0.2500000000000000 Ba
   0.5000000000000000    0.9812622070312500    0.7500000000000000 Ba
   0.0000000000000000    0.5187377929687500    0.2500000000000000 Ba
   0.0000000000000000    0.4812622070312500    0.7500000000000000 Ba
   0.2185668945312500    0.8197631835937500    0.1298828125000000 Cl
   0.7814331054687500    0.8197631835937500    0.3701171875000000 Cl
   0.7814331054687500    0.1802368164062500    0.8701171875000000 Cl
   0.2185668945312500    0.1802368164062500    0.6298828125000000 Cl
   0.7185668945312500    0.3197631835937500    0.1298828125000000 Cl
   0.2814331054687500    0.3197631835937500    0.3701171875000000 Cl
   0.2814331054687500    0.6802368164062500    0.8701171875000000 Cl
   0.7185668945312500    0.6802368164062500    0.6298828125000000 Cl
   0.8205566406250000    0.3989791870117188    0.5024414062500000 Cl
   0.1794433593750000    0.3989791870117188    0.9975585937500000 Cl
   0.1794433593750000    0.6010208129882812    0.4975585937500000 Cl
   0.8205566406250000    0.6010208129882812    0.0024414062500000 Cl
   0.3205566406250000    0.8989791870117188    0.5024414062500000 Cl
   0.6794433593750000    0.8989791870117188    0.9975585937500000 Cl
   0.6794433593750000    0.1010208129882812    0.4975585937500000 Cl
   0.3205566406250000    0.1010208129882812    0.0024414062500000 Cl
   0.9950561523437500    0.8060302734375000    0.9444580078125000 Gd
   0.0049438476562500    0.8060302734375000    0.5555419921875000 Gd
   0.0049438476562500    0.1939697265625000    0.0555419921875000 Gd
   0.9950561523437500    0.1939697265625000    0.4444580078125000 Gd
   0.4950561523437500    0.3060302734375000    0.9444580078125000 Gd
   0.5049438476562500    0.3060302734375000    0.5555419921875000 Gd
   0.5049438476562500    0.6939697265625000    0.0555419921875000 Gd
   0.4950561523437500    0.6939697265625000    0.4444580078125000 Gd
