Nb4 O10
1.0
   2.9302504533336258    0.0000000000000000    0.5195170139120504
   1.4211294727914812    5.7834287957903685    0.2945276001307745
   0.0000000000000000    0.0000000000000000    7.6788473129272461
O Nb
10 4
direct
   0.2538452148437500    0.6155395507812500    0.9359130859375000 O
   0.7461547851562500    0.3844604492187500    0.0640869140625000 O
   0.2369079589843750    0.3170776367187500    0.7422332763671875 O
   0.7630920410156250    0.6829223632812500    0.2577667236328125 O
   0.7508544921875000    0.9453125000000000    0.8456115722656250 O
   0.2491455078125000    0.0546875000000000    0.1543884277343750 O
   0.7517089843750000    0.4636840820312500    0.6148223876953125 O
   0.2482910156250000    0.5363159179687500    0.3851776123046875 O
   0.2583885192871094    0.9096069335937500    0.5493774414062500 O
   0.7416114807128906    0.0903930664062500    0.4506225585937500 O
   0.3143005371093750    0.7374267578125000    0.1384277343750000 Nb
   0.6856994628906250    0.2625732421875000    0.8615722656250000 Nb
   0.0906982421875000    0.6945800781250000    0.6539001464843750 Nb
   0.9093017578125000    0.3054199218750000    0.3460998535156250 Nb
