Th2 Si6 Pt2
1.0
   4.3121509459837846    0.0000000000000000   -0.0002819310370726
  -0.0002819494704970    4.3121509367661686   -0.0002819310370726
   0.0000000000000000    0.0000000000000000   11.1503496170043945
Si Pt Th Si
2 2 2 4
direct
   0.0000000000000000    0.0000000000000000    0.5903472900390625 Si
   0.5000000000000000    0.5000000000000000    0.0903472900390625 Si
   0.0000000000000000    0.0000000000000000    0.3657531738281250 Pt
   0.5000000000000000    0.5000000000000000    0.8657531738281250 Pt
   0.5000000000000000    0.5000000000000000    0.4967651367187500 Th
   0.0000000000000000    0.0000000000000000    0.9967651367187500 Th
   0.0000000000000000    0.5000000000000000    0.7330083847045898 Si
   0.5000000000000000    0.0000000000000000    0.7330083847045898 Si
   0.5000000000000000    0.0000000000000000    0.2330083847045898 Si
   0.0000000000000000    0.5000000000000000    0.2330083847045898 Si
