Fe3 Cu6 Sn9 S24
1.0
   7.3775482020053165    0.0000000000000000   -0.0004823485637908
  -3.6883555635141896    6.3893857850348814   -0.0004823485637908
   0.0000000000000000    0.0000000000000000   17.1108512878417969
Fe S Cu Sn S
3 6 6 9 18
direct
   0.3333333432674408    0.6666666865348816    0.1666666716337204 Fe
   0.6666666865348816    0.3333333432674408    0.8333333134651184 Fe
   0.0000000000000000    0.0000000000000000    0.5000000000000000 Fe
   0.6666666865348816    0.3333333432674408    0.5745544433593750 S
   0.3333333432674408    0.6666666865348816    0.4254455566406250 S
   0.3333333730697632    0.6666666865348816    0.9078878164291382 S
   0.0000000000000000    0.0000000000000000    0.7587789297103882 S
   0.0000000000000000    0.0000000000000000    0.2412211894989014 S
   0.6666666865348816    0.3333333730697632    0.0921122431755066 S
   0.0000000000000000    0.0000000000000000    0.1193847656250000 Cu
   0.0000000000000000    0.0000000000000000    0.8806152343750000 Cu
   0.6666666865348816    0.3333333432674408    0.4527181088924408 Cu
   0.6666666865348816    0.3333333432674408    0.2139485776424408 Cu
   0.3333333432674408    0.6666666865348816    0.7860514521598816 Cu
   0.3333333432674408    0.6666666865348816    0.5472819209098816 Cu
   0.5000000000000000    0.5000000000000000    0.0000000000000000 Sn
   0.5000000000000000    0.0000000000000000    0.0000000000000000 Sn
   0.0000000000000000    0.5000000000000000    0.0000000000000000 Sn
   0.1666667461395264    0.8333333730697632    0.3333333432674408 Sn
   0.1666666865348816    0.3333333432674408    0.3333333432674408 Sn
   0.6666666865348816    0.8333333730697632    0.3333333432674408 Sn
   0.8333333730697632    0.1666667461395264    0.6666666865348816 Sn
   0.8333333730697632    0.6666666865348816    0.6666666865348816 Sn
   0.3333333432674408    0.1666666865348816    0.6666666865348816 Sn
   0.0278320312500000    0.5139160156250000    0.2463989257812500 S
   0.4860839843750000    0.5139160156250000    0.2463989257812500 S
   0.4860839843750000    0.9721679687500000    0.2463989257812500 S
   0.5139160156250000    0.0278320312500000    0.7536010742187500 S
   0.5139160156250000    0.4860839843750000    0.7536010742187500 S
   0.9721679687500000    0.4860839843750000    0.7536010742187500 S
   0.6944987177848816    0.8472493886947632    0.5797322988510132 S
   0.1527506709098816    0.8472493886947632    0.5797322988510132 S
   0.1527507305145264    0.3055013120174408    0.5797322988510132 S
   0.1805827617645264    0.3611653745174408    0.0869344174861908 S
   0.1805827021598816    0.8194173574447632    0.0869344174861908 S
   0.6388346552848816    0.8194173574447632    0.0869344174861908 S
   0.3611653745174408    0.1805827617645264    0.9130656123161316 S
   0.8194173574447632    0.1805827021598816    0.9130656123161316 S
   0.8194173574447632    0.6388346552848816    0.9130656123161316 S
   0.8472493886947632    0.6944987177848816    0.4202677607536316 S
   0.8472493886947632    0.1527506709098816    0.4202677607536316 S
   0.3055013120174408    0.1527507305145264    0.4202677607536316 S
