Te4 Mo2 Se1
1.0
   4.0370521459125763    0.0000000000000000   -0.0002639449111292
  -2.0182970459652472    3.4963219335560760   -0.0002639449111292
   0.0000000000000000    0.0000000000000000   24.3289546966552734
Se Mo Te
1 2 4
direct
   0.0000000000000000    0.0000000000000000    0.3000488281250000 Se
   0.0000000000000000    0.0000000000000000    0.5014648437500000 Mo
   0.0000000000000000    0.0000000000000000    0.0803222656250000 Mo
   0.3333333432674408    0.6666666865348816    0.0122070312500000 Te
   0.3333333432674408    0.6666666865348816    0.5734863281250000 Te
   0.3333333432674408    0.6666666865348816    0.4342041015625000 Te
   0.3333333432674408    0.6666666865348816    0.1550292968750000 Te
