Sb1 W1 C4 O6
1.0
   5.0849211815098165    0.0000000000000000   -0.0362768292362881
  -0.0760178652848058    5.2850626403283067   -0.3092791918655244
   0.0000000000000000    0.0000000000000000    7.3251514434814453
C O Sb W
4 6 1 1
direct
   0.5317382812500000    0.4956054687500000    0.3261718750000000 C
   0.6640625000000000    0.5922851562500000    0.7612304687500000 C
   0.2060546875000000    0.8959960937500000    0.2294921875000000 C
   0.9838867187500000    0.7475585937500000    0.2250976562500000 C
   0.8461914062500000    0.8357849121093750    0.7309570312500000 O
   0.8449707031250000    0.4025878906250000    0.8469238281250000 O
   0.4750976562500000    0.7379608154296875    0.3199462890625000 O
   0.8046875000000000    0.4730834960937500    0.4155273437500000 O
   0.3725585937500000    0.2581481933593750    0.3139648437500000 O
   0.3881835937500000    0.5249176025390625    0.7646484375000000 O
   0.0944824218750000    0.3554687500000000    0.1152343750000000 Sb
   0.0531616210937500    0.5473632812500000    0.6275634765625000 W
