Na2 H4 Se2 O4 F2
1.0
   5.1843558660111801    0.0000000000000000   -0.2387067412414945
  -0.0005122434283997    7.4823498390628442   -0.0004892005593578
   0.0000000000000000    0.0000000000000000    5.5304503440856934
F Na Se H O
2 2 2 4 4
direct
   0.2838134765625000    0.2500000000000000    0.8683471679687500 F
   0.7161865234375000    0.7500000000000000    0.1316528320312500 F
   0.3771667480468750    0.2500000000000000    0.4129028320312500 Na
   0.6228332519531250    0.7500000000000000    0.5870971679687500 Na
   0.6457519531250000    0.2500000000000000    0.8829345703125000 Se
   0.3542480468750000    0.7500000000000000    0.1170654296875000 Se
   0.1280822753906250    0.9417266845703125    0.2639160156250000 H
   0.8719177246093750    0.4417266845703125    0.7360839843750000 H
   0.8719177246093750    0.0582733154296875    0.7360839843750000 H
   0.1280822753906250    0.5582733154296875    0.2639160156250000 H
   0.3106689453125000    0.5718994140625000    0.3142089843750000 O
   0.6893310546875000    0.0718994140625000    0.6857910156250000 O
   0.6893310546875000    0.4281005859375000    0.6857910156250000 O
   0.3106689453125000    0.9281005859375000    0.3142089843750000 O
