Lu6 Ga20
1.0
   4.3514499571302592    0.0000000000000000   -0.0002845004301915
  -0.0006125746270237    9.3687505321540900   -0.0006125345778331
   0.0000000000000000    0.0000000000000000   12.8533477783203125
Lu Ga Lu Ga
2 4 4 16
direct
   0.0000000000000000    0.0000000000000000    0.0000000000000000 Lu
   0.5000000000000000    0.5000000000000000    0.5000000000000000 Lu
   0.0000000000000000    0.1993408203125000    0.5000000000000000 Ga
   0.0000000000000000    0.8006591796875000    0.5000000000000000 Ga
   0.5000000000000000    0.6993408203125000    0.0000000000000000 Ga
   0.5000000000000000    0.3006591796875000    0.0000000000000000 Ga
   0.0000000000000000    0.0000000000000000    0.3100585937500000 Lu
   0.0000000000000000    0.0000000000000000    0.6899414062500000 Lu
   0.5000000000000000    0.5000000000000000    0.8100585937500000 Lu
   0.5000000000000000    0.5000000000000000    0.1899414062500000 Lu
   0.0000000000000000    0.2857971191406250    0.1250000000000000 Ga
   0.0000000000000000    0.7142028808593750    0.1250000000000000 Ga
   0.0000000000000000    0.2857971191406250    0.8750000000000000 Ga
   0.0000000000000000    0.7142028808593750    0.8750000000000000 Ga
   0.5000000000000000    0.7857971191406250    0.6250000000000000 Ga
   0.5000000000000000    0.2142028808593750    0.6250000000000000 Ga
   0.5000000000000000    0.7857971191406250    0.3750000000000000 Ga
   0.5000000000000000    0.2142028808593750    0.3750000000000000 Ga
   0.0000000000000000    0.6348876953125000    0.3283691406250000 Ga
   0.0000000000000000    0.3651123046875000    0.3283691406250000 Ga
   0.0000000000000000    0.6348876953125000    0.6716308593750000 Ga
   0.0000000000000000    0.3651123046875000    0.6716308593750000 Ga
   0.5000000000000000    0.1348876953125000    0.8283691406250000 Ga
   0.5000000000000000    0.8651123046875000    0.8283691406250000 Ga
   0.5000000000000000    0.1348876953125000    0.1716308593750000 Ga
   0.5000000000000000    0.8651123046875000    0.1716308593750000 Ga
