Li6 V2 Cr2 P4 O16
1.0
   5.3440374689612842    0.0000000000000000   -0.1794978080825363
  -0.0003739331406044    5.5304503196239310   -0.0003615841878416
   0.0000000000000000    0.0000000000000000   11.6350479125976562
Li V Cr Li O P O
2 2 2 4 8 4 8
direct
   0.5000000000000000    0.0000000000000000    0.0000000000000000 Li
   0.0000000000000000    0.5000000000000000    0.0000000000000000 Li
   0.0000000000000000    0.0000000000000000    0.5000000000000000 V
   0.5000000000000000    0.5000000000000000    0.5000000000000000 V
   0.5000000000000000    0.0000000000000000    0.5000000000000000 Cr
   0.0000000000000000    0.5000000000000000    0.5000000000000000 Cr
   0.6839599609375000    0.0000000000000000    0.2634735107421875 Li
   0.3160400390625000    0.0000000000000000    0.7365264892578125 Li
   0.1839599609375000    0.5000000000000000    0.2634735107421875 Li
   0.8160400390625000    0.5000000000000000    0.7365264892578125 Li
   0.7886352539062500    0.0000000000000000    0.4033203125000000 O
   0.2113647460937500    0.0000000000000000    0.5966796875000000 O
   0.2886352539062500    0.5000000000000000    0.4033203125000000 O
   0.7113647460937500    0.5000000000000000    0.5966796875000000 O
   0.6837768554687500    0.0000000000000000    0.6947631835937500 O
   0.3162231445312500    0.0000000000000000    0.3052368164062500 O
   0.1837768554687500    0.5000000000000000    0.6947631835937500 O
   0.8162231445312500    0.5000000000000000    0.3052368164062500 O
   0.7780151367187500    0.0000000000000000    0.8115234375000000 P
   0.2219848632812500    0.0000000000000000    0.1884765625000000 P
   0.2780151367187500    0.5000000000000000    0.8115234375000000 P
   0.7219848632812500    0.5000000000000000    0.1884765625000000 P
   0.3558349609375000    0.7290649414062500    0.8607559204101562 O
   0.6441650390625000    0.7290649414062500    0.1392440795898438 O
   0.6441650390625000    0.2709350585937500    0.1392440795898438 O
   0.3558349609375000    0.2709350585937500    0.8607559204101562 O
   0.8558349609375000    0.2290649414062500    0.8607559204101562 O
   0.1441650390625000    0.2290649414062500    0.1392440795898438 O
   0.1441650390625000    0.7709350585937500    0.1392440795898438 O
   0.8558349609375000    0.7709350585937500    0.8607559204101562 O
