Mg4 Fe4 N8
1.0
   4.0632486256539497    0.0000000000000000   -0.0002656576528197
  -0.0002656750222456    4.0632486169683855   -0.0002656576528197
   0.0000000000000000    0.0000000000000000    8.7792510986328125
Fe Mg N
4 4 8
direct
   0.0000000000000000    0.7500000000000000    0.1250000000000000 Fe
   0.5000000000000000    0.2500000000000000    0.6250000000000000 Fe
   0.5000000000000000    0.7500000000000000    0.3750000000000000 Fe
   0.0000000000000000    0.2500000000000000    0.8750000000000000 Fe
   0.5000000000000000    0.2500000000000000    0.1250000000000000 Mg
   0.0000000000000000    0.7500000000000000    0.6250000000000000 Mg
   0.0000000000000000    0.2500000000000000    0.3750000000000000 Mg
   0.5000000000000000    0.7500000000000000    0.8750000000000000 Mg
   0.5000000000000000    0.7500000000000000    0.1482391357421875 N
   0.0000000000000000    0.2500000000000000    0.6482391357421875 N
   0.5000000000000000    0.2500000000000000    0.3982391357421875 N
   0.0000000000000000    0.7500000000000000    0.8982391357421875 N
   0.0000000000000000    0.7500000000000000    0.3517608642578125 N
   0.5000000000000000    0.2500000000000000    0.8517608642578125 N
   0.0000000000000000    0.2500000000000000    0.1017608642578125 N
   0.5000000000000000    0.7500000000000000    0.6017608642578125 N
