Li2 V2 F11
1.0
   5.2814909980766682    0.0000000000000000    0.0245430001256258
   0.0076583000869854    5.4862145810973040    0.4451452344535092
   0.0000000000000000    0.0000000000000000    7.5085506439208984
Li F V
2 11 2
direct
   0.0177612304687500    0.4360351562500000    0.2665405273437500 Li
   0.0109252929687500    0.8535156250000000    0.9464111328125000 Li
   0.6665039062500000    0.9403076171875000    0.4705810546875000 F
   0.7260742187500000    0.2303466796875000    0.1767578125000000 F
   0.8544921875000000    0.1315917968750000    0.8151855468750000 F
   0.7424316406250000    0.6138916015625000    0.8029785156250000 F
   0.3317871093750000    0.6511230468750000    0.3266601562500000 F
   0.9035644531250000    0.4267578125000000    0.5109863281250000 F
   0.3662109375000000    0.9245605468750000    0.0280761718750000 F
   0.3068847656250000    0.2706298828125000    0.7026367187500000 F
   0.2463378906250000    0.1330566406250000    0.3293457031250000 F
   0.8182373046875000    0.7702636718750000    0.1751708984375000 F
   0.1396484375000000    0.4768066406250000    0.9766845703125000 F
   0.5164794921875000    0.9501953125000000    0.2423095703125000 V
   0.0203857421875000    0.4284667968750000    0.7421875000000000 V
