Gd1 In5 Pd1
1.0
   4.6396508117694104    0.0000000000000000   -0.0003033431763875
  -0.0003033630097962    4.6396508018517340   -0.0003033431763875
   0.0000000000000000    0.0000000000000000    7.3644499778747559
Gd Pd In
1 1 5
direct
   0.0000000000000000    0.0000000000000000    0.0000000000000000 Gd
   0.0000000000000000    0.0000000000000000    0.5000000000000000 Pd
   0.5000000000000000    0.5000000000000000    0.0000000000000000 In
   0.0000000000000000    0.5000000000000000    0.2924194335937500 In
   0.5000000000000000    0.0000000000000000    0.2924194335937500 In
   0.0000000000000000    0.5000000000000000    0.7075805664062500 In
   0.5000000000000000    0.0000000000000000    0.7075805664062500 In
