Sm2 Ti2 V2 W2 O20
1.0
   4.7444524663610910    0.0000000000000000   -0.0003101951719544
  -0.0005551862656275    8.4910497302421142   -0.0005551499684001
   0.0000000000000000    0.0000000000000000    8.5041522979736328
Ti V Sm W O
2 2 2 2 20
direct
   0.0000000000000000    0.0000000000000000    0.6242065429687500 Ti
   0.5000000000000000    0.5000000000000000    0.1242065429687500 Ti
   0.5000000000000000    0.0000000000000000    0.7167053222656250 V
   0.0000000000000000    0.5000000000000000    0.2167053222656250 V
   0.5000000000000000    0.0000000000000000    0.3423767089843750 Sm
   0.0000000000000000    0.5000000000000000    0.8423767089843750 Sm
   0.0000000000000000    0.5000000000000000    0.4671936035156250 W
   0.5000000000000000    0.0000000000000000    0.9671936035156250 W
   0.5000000000000000    0.5913848876953125    0.9125976562500000 O
   0.5000000000000000    0.4086151123046875    0.9125976562500000 O
   0.0000000000000000    0.0913848876953125    0.4125976562500000 O
   0.0000000000000000    0.9086151123046875    0.4125976562500000 O
   0.5000000000000000    0.8468017578125000    0.1230010986328125 O
   0.5000000000000000    0.1531982421875000    0.1230010986328125 O
   0.0000000000000000    0.3468017578125000    0.6230010986328125 O
   0.0000000000000000    0.6531982421875000    0.6230010986328125 O
   0.5000000000000000    0.1429225206375122    0.5730590820312500 O
   0.5000000000000000    0.8570774793624878    0.5730590820312500 O
   0.0000000000000000    0.6429225206375122    0.0730590820312500 O
   0.0000000000000000    0.3570774793624878    0.0730590820312500 O
   0.2441558837890625    0.6240234375000000    0.3231201171875000 O
   0.7558441162109375    0.3759765625000000    0.3231201171875000 O
   0.2441558837890625    0.3759765625000000    0.3231201171875000 O
   0.7558441162109375    0.6240234375000000    0.3231201171875000 O
   0.7441558837890625    0.1240234375000000    0.8231201171875000 O
   0.2558441162109375    0.8759765625000000    0.8231201171875000 O
   0.7441558837890625    0.8759765625000000    0.8231201171875000 O
   0.2558441162109375    0.1240234375000000    0.8231201171875000 O
