Y3 Mg3 Ga3
1.0
   7.5871476964914191    0.0000000000000000   -0.0004960523055175
  -3.7931434199171403    6.5709111365406816   -0.0004960523055175
   0.0000000000000000    0.0000000000000000    4.8885531425476074
Ga Y Mg
3 3 3
direct
   0.0000000000000000    0.0000000000000000    0.0000000000000000 Ga
   0.6666666865348816    0.3333333432674408    0.5000000000000000 Ga
   0.3333333432674408    0.6666666865348816    0.5000000000000000 Ga
   0.4196777343750000    0.0000000000000000    0.0000000000000000 Y
   0.0000000000000000    0.4196777343750000    0.0000000000000000 Y
   0.5803222656250000    0.5803222656250000    0.0000000000000000 Y
   0.2420654296875000    0.2420654296875000    0.5000000000000000 Mg
   0.7579345703125000    0.0000000000000000    0.5000000000000000 Mg
   0.0000000000000000    0.7579345703125000    0.5000000000000000 Mg
