Gd3 Mg3 In3
1.0
   7.8753490279677285    0.0000000000000000   -0.0005148950828893
  -3.9372277356351870    6.8205102499781693   -0.0005148950828893
   0.0000000000000000    0.0000000000000000    5.0588502883911133
In Gd Mg
3 3 3
direct
   0.0000000000000000    0.0000000000000000    0.0000000000000000 In
   0.6666666865348816    0.3333333432674408    0.5000000000000000 In
   0.3333333432674408    0.6666666865348816    0.5000000000000000 In
   0.5710144042968750    0.5710144042968750    0.0000000000000000 Gd
   0.4289855957031250    0.0000000000000000    0.0000000000000000 Gd
   0.0000000000000000    0.4289855957031250    0.0000000000000000 Gd
   0.2432861328125000    0.2432861328125000    0.5000000000000000 Mg
   0.7567138671875000    0.0000000000000000    0.5000000000000000 Mg
   0.0000000000000000    0.7567138671875000    0.5000000000000000 Mg
