Ti4 As4
1.0
   5.4256486776737169    0.0000000000000000   -0.0003547321922747
  -0.0003547553856383    5.4256486660758982   -0.0003547321922747
   0.0000000000000000    0.0000000000000000    5.4256486892700195
Ti As
4 4
direct
   0.0000000000000000    0.0000000000000000    0.0000000000000000 Ti
   0.0000000000000000    0.5000000000000000    0.5000000000000000 Ti
   0.5000000000000000    0.0000000000000000    0.5000000000000000 Ti
   0.5000000000000000    0.5000000000000000    0.0000000000000000 Ti
   0.2500000000000000    0.2500000000000000    0.7500000000000000 As
   0.7500000000000000    0.7500000000000000    0.7500000000000000 As
   0.7500000000000000    0.2500000000000000    0.2500000000000000 As
   0.2500000000000000    0.7500000000000000    0.2500000000000000 As
