La2 Eu2 Ge2 Se10
1.0
   7.6146577109070961    0.0000000000000000   -0.8835704818300618
  -2.5230521846052865    8.5910242856099845   -0.3970009839762434
   0.0000000000000000    0.0000000000000000    9.2901496887207031
Ge Se La Eu
2 10 2 2
direct
   0.1196136474609375    0.7386169433593750    0.8057861328125000 Ge
   0.8803863525390625    0.2613830566406250    0.1942138671875000 Ge
   0.6215362548828125    0.2247314453125000    0.5986328125000000 Se
   0.3784637451171875    0.7752685546875000    0.4013671875000000 Se
   0.1326293945312500    0.0042495727539062    0.7100830078125000 Se
   0.8673706054687500    0.9957504272460938    0.2899169921875000 Se
   0.1971435546875000    0.3852539062500000    0.0971069335937500 Se
   0.8028564453125000    0.6147460937500000    0.9028930664062500 Se
   0.5426635742187500    0.1647949218750000    0.1236572265625000 Se
   0.4573364257812500    0.8352050781250000    0.8763427734375000 Se
   0.8640747070312500    0.5020751953125000    0.3154602050781250 Se
   0.1359252929687500    0.4979248046875000    0.6845397949218750 Se
   0.5848140716552734    0.6774902343750000    0.1616058349609375 La
   0.4151859283447266    0.3225097656250000    0.8383941650390625 La
   0.7100822329521179    0.8980102539062500    0.6325531005859375 Eu
   0.2899177670478821    0.1019897460937500    0.3674468994140625 Eu
