Nb6 Fe1 Te8
1.0
  10.7573508986390465    0.0000000000000000   -0.0007033221083858
  -5.3780651714190055    9.3164914731040351   -0.0007033221083858
   0.0000000000000000    0.0000000000000000    3.8274488449096680
Fe Te Nb Te
1 2 6 6
direct
   0.0000000000000000    0.0000000000000000    0.0000000000000000 Fe
   0.6666666865348816    0.3333333432674408    0.7506713867187500 Te
   0.3333333134651184    0.6666666269302368    0.2493286132812500 Te
   0.5159912109375000    0.9028320312500000    0.7494812011718750 Nb
   0.0971679687500000    0.6131591796875000    0.7494812011718750 Nb
   0.3868408203125000    0.4840087890625000    0.7494812011718750 Nb
   0.4840087890625000    0.0971679687500000    0.2505187988281250 Nb
   0.9028320312500000    0.3868408203125000    0.2505187988281250 Nb
   0.6131591796875000    0.5159912109375000    0.2505187988281250 Nb
   0.3367309570312500    0.2665557861328125    0.2511596679687500 Te
   0.7334442138671875    0.0701751708984375    0.2511596679687500 Te
   0.9298248291015625    0.6632690429687500    0.2511596679687500 Te
   0.6632690429687500    0.7334442138671875    0.7488403320312500 Te
   0.2665557861328125    0.9298248291015625    0.7488403320312500 Te
   0.0701751708984375    0.3367309570312500    0.7488403320312500 Te
