Sc8 Zn4 Tc4
1.0
   6.6832504129619039    0.0000000000000000   -0.0004369549543940
  -0.0004369835237072    6.6832503986758462   -0.0004369549543940
   0.0000000000000000    0.0000000000000000    6.6832504272460938
Tc Zn Sc
4 4 8
direct
   0.0000000000000000    0.0000000000000000    0.0000000000000000 Tc
   0.0000000000000000    0.5000000000000000    0.5000000000000000 Tc
   0.5000000000000000    0.0000000000000000    0.5000000000000000 Tc
   0.5000000000000000    0.5000000000000000    0.0000000000000000 Tc
   0.5000000000000000    0.0000000000000000    0.0000000000000000 Zn
   0.0000000000000000    0.5000000000000000    0.0000000000000000 Zn
   0.0000000000000000    0.0000000000000000    0.5000000000000000 Zn
   0.5000000000000000    0.5000000000000000    0.5000000000000000 Zn
   0.2500000000000000    0.2500000000000000    0.2500000000000000 Sc
   0.7500000000000000    0.7500000000000000    0.2500000000000000 Sc
   0.7500000000000000    0.2500000000000000    0.7500000000000000 Sc
   0.2500000000000000    0.7500000000000000    0.7500000000000000 Sc
   0.2500000000000000    0.2500000000000000    0.7500000000000000 Sc
   0.7500000000000000    0.7500000000000000    0.7500000000000000 Sc
   0.2500000000000000    0.7500000000000000    0.2500000000000000 Sc
   0.7500000000000000    0.2500000000000000    0.2500000000000000 Sc
