Li3 Mg9 Ni24
1.0
   4.9278516664085625    0.0000000000000000   -0.0003221859225834
  -2.4636462700481307    4.2678061228462081   -0.0003221859225834
   0.0000000000000000    0.0000000000000000   18.7876472473144531
Li Mg Ni
3 9 24
direct
   0.0000000000000000    0.0000000000000000    0.0009155273437500 Li
   0.6666666865348816    0.3333333432674408    0.3342488706111908 Li
   0.3333333432674408    0.6666666865348816    0.6675822138786316 Li
   0.6666666865348816    0.3333333432674408    0.5295257568359375 Mg
   0.3333333730697632    0.6666666865348816    0.8628591299057007 Mg
   0.0000000000000000    0.0000000000000000    0.1961925029754639 Mg
   0.6666666865348816    0.3333333432674408    0.6546020507812500 Mg
   0.3333333730697632    0.6666666865348816    0.9879354238510132 Mg
   0.0000000000000000    0.0000000000000000    0.3212687969207764 Mg
   0.3333333432674408    0.6666666865348816    0.4732055664062500 Mg
   0.0000000000000000    0.0000000000000000    0.8065389394760132 Mg
   0.6666666865348816    0.3333333730697632    0.1398723125457764 Mg
   0.3333333432674408    0.6666666865348816    0.1698493957519531 Ni
   0.0000000000000000    0.0000000000000000    0.5031827688217163 Ni
   0.6666666865348816    0.3333333730697632    0.8365160822868347 Ni
   0.6666666865348816    0.3333333432674408    0.0115661621093750 Ni
   0.3333333730697632    0.6666666865348816    0.3448995053768158 Ni
   0.0000000000000000    0.0000000000000000    0.6782328486442566 Ni
   0.1650695800781250    0.8349304199218750    0.5845642089843750 Ni
   0.1650695800781250    0.3301391601562500    0.5845642089843750 Ni
   0.6698608398437500    0.8349304199218750    0.5845642089843750 Ni
   0.8317362666130066    0.1682637929916382    0.9178975820541382 Ni
   0.8317362666130066    0.6634725332260132    0.9178975820541382 Ni
   0.3365275859832764    0.1682637631893158    0.9178975820541382 Ni
   0.4984029233455658    0.5015971660614014    0.2512309551239014 Ni
   0.4984029531478882    0.9968058466911316    0.2512309551239014 Ni
   0.0031942129135132    0.5015971064567566    0.2512309551239014 Ni
   0.4974136352539062    0.9948272705078125    0.7478332519531250 Ni
   0.0051727294921875    0.5025863647460938    0.7478332519531250 Ni
   0.4974136352539062    0.5025863647460938    0.7478332519531250 Ni
   0.1640803813934326    0.3281606435775757    0.0811666250228882 Ni
   0.6718394160270691    0.8359197378158569    0.0811666250228882 Ni
   0.1640803813934326    0.8359197378158569    0.0811666250228882 Ni
   0.8307470083236694    0.6614940166473389    0.4144999980926514 Ni
   0.3385061025619507    0.1692530512809753    0.4144999980926514 Ni
   0.8307470083236694    0.1692530512809753    0.4144999980926514 Ni
