La3 In1
1.0
   5.2553515321941893    0.0000000000000000   -0.0003435980618982
  -0.0003436205272818    5.2553515209603958   -0.0003435980618982
   0.0000000000000000    0.0000000000000000    5.2553515434265137
In La
1 3
direct
   0.0000000000000000    0.0000000000000000    0.0000000000000000 In
   0.5000000000000000    0.5000000000000000    0.0000000000000000 La
   0.0000000000000000    0.5000000000000000    0.5000000000000000 La
   0.5000000000000000    0.0000000000000000    0.5000000000000000 La
