Ti8 Al4 Fe2 Co2
1.0
   7.9539503881207780    0.0000000000000000   -0.0005200340873585
  -0.0002562530487414    3.9191484283754150   -0.0002562362953097
   0.0000000000000000    0.0000000000000000    8.9626502990722656
Fe Co Al Ti
2 2 4 8
direct
   0.0000000000000000    0.5000000000000000    0.2837524414062500 Fe
   0.0000000000000000    0.0000000000000000    0.7837524414062500 Fe
   0.5000000000000000    0.5000000000000000    0.4971618652343750 Co
   0.5000000000000000    0.0000000000000000    0.9971618652343750 Co
   0.3419036865234375    0.5000000000000000    0.2023925781250000 Al
   0.6580963134765625    0.5000000000000000    0.2023925781250000 Al
   0.3419036865234375    0.0000000000000000    0.7023925781250000 Al
   0.6580963134765625    0.0000000000000000    0.7023925781250000 Al
   0.8443908691406250    0.5000000000000000    0.5780029296875000 Ti
   0.1556091308593750    0.5000000000000000    0.5780029296875000 Ti
   0.8443908691406250    0.0000000000000000    0.0780029296875000 Ti
   0.1556091308593750    0.0000000000000000    0.0780029296875000 Ti
   0.7533569335937500    0.0000000000000000    0.3952484130859375 Ti
   0.2466430664062500    0.0000000000000000    0.3952484130859375 Ti
   0.7533569335937500    0.5000000000000000    0.8952484130859375 Ti
   0.2466430664062500    0.5000000000000000    0.8952484130859375 Ti
