Li4 V3 O2 F9
1.0
   5.0064167845062038    0.0000000000000000    0.0180221511819773
   0.0255794730696453    5.1780654683040312    0.3485833476709705
   0.0000000000000000    0.0000000000000000    7.5085506439208984
Li O F V
4 2 9 3
direct
   0.3603515625000000    0.7236328125000000    0.1606445312500000 Li
   0.8486328125000000    0.7548828125000000    0.3886718750000000 Li
   0.3859863281250000    0.6855468750000000    0.6704101562500000 Li
   0.8292236328125000    0.2275390625000000    0.1308593750000000 Li
   0.7150878906250000    0.8107910156250000    0.6435546875000000 O
   0.4746093750000000    0.2949218750000000    0.6123046875000000 O
   0.0151367187500000    0.4494628906250000    0.8193359375000000 F
   0.9790039062500000    0.7984619140625000    0.1040039062500000 F
   0.5307617187500000    0.9975585937500000    0.2846679687500000 F
   0.1958007812500000    0.6091308593750000    0.4353027343750000 F
   0.5209960937500000    0.6352539062500000    0.9345703125000000 F
   0.1303710937500000    0.9443359375000000    0.7674560546875000 F
   0.6411132812500000    0.4667968750000000    0.2846679687500000 F
   0.0302734375000000    0.1306152343750000    0.4047851562500000 F
   0.6972656250000000    0.1074218750000000    0.9099121093750000 F
   0.3510742187500000    0.2700195312500000    0.4016113281250000 V
   0.8436279296875000    0.1870117187500000    0.6533203125000000 V
   0.8331909179687500    0.7578125000000000    0.8745117187500000 V
