Li12 Ge4
1.0
   6.1330485212850734    0.0000000000000000   -0.0004009824219240
  -0.0004010086392544    6.1330485081751229   -0.0004009824219240
   0.0000000000000000    0.0000000000000000    6.1330485343933105
Ge Li
4 12
direct
   0.0000000000000000    0.0000000000000000    0.0000000000000000 Ge
   0.0000000000000000    0.5000000000000000    0.5000000000000000 Ge
   0.5000000000000000    0.0000000000000000    0.5000000000000000 Ge
   0.5000000000000000    0.5000000000000000    0.0000000000000000 Ge
   0.5000000000000000    0.0000000000000000    0.0000000000000000 Li
   0.0000000000000000    0.5000000000000000    0.0000000000000000 Li
   0.0000000000000000    0.0000000000000000    0.5000000000000000 Li
   0.5000000000000000    0.5000000000000000    0.5000000000000000 Li
   0.2500000000000000    0.2500000000000000    0.2500000000000000 Li
   0.7500000000000000    0.7500000000000000    0.2500000000000000 Li
   0.7500000000000000    0.2500000000000000    0.7500000000000000 Li
   0.2500000000000000    0.7500000000000000    0.7500000000000000 Li
   0.2500000000000000    0.2500000000000000    0.7500000000000000 Li
   0.7500000000000000    0.7500000000000000    0.7500000000000000 Li
   0.7500000000000000    0.2500000000000000    0.2500000000000000 Li
   0.2500000000000000    0.7500000000000000    0.2500000000000000 Li
