Si4 O9
1.0
   5.6697050352928002    0.0000000000000000   -1.1861417697007941
  -1.0614699930451199    5.8971461750946625   -1.1792329965506951
   0.0000000000000000    0.0000000000000000    6.5260515213012695
O Si
9 4
direct
   0.1596679687500000    0.5930175781250000    0.1992187500000000 O
   0.2790527343750000    0.1575050354003906    0.7108764648437500 O
   0.8139648437500000    0.2174072265625000    0.1091308593750000 O
   0.5792236328125000    0.5133666992187500    0.9421386718750000 O
   0.9941406250000000    0.4419403076171875    0.7947998046875000 O
   0.6264648437500000    0.4484252929687500    0.3749389648437500 O
   0.6475830078125000    0.9304199218750000    0.3830566406250000 O
   0.3293457031250000    0.0634765625000000    0.1628417968750000 O
   0.3579101562500000    0.6415405273437500    0.5926513671875000 O
   0.2978515625000000    0.4323730468750000    0.7586669921875000 Si
   0.8833007812500000    0.4814453125000000    0.0136470794677734 Si
   0.4448242187500000    0.6950683593750000    0.3785705566406250 Si
   0.6040039062500000    0.1994628906250000    0.2465820312500000 Si
