Sc12 Cr4 N16
1.0
  13.3736498989083152    0.0000000000000000   -4.1171469980878133
  -0.0003504668604117    3.9584469555477226   -0.0002588056572528
   0.0000000000000000    0.0000000000000000    8.5041522979736328
N Sc Cr
16 12 4
direct
   0.1298217773437500    0.0000000000000000    0.4452819824218750 N
   0.8701782226562500    0.0000000000000000    0.5547180175781250 N
   0.6298217773437500    0.5000000000000000    0.4452819824218750 N
   0.3701782226562500    0.5000000000000000    0.5547180175781250 N
   0.6672272682189941    0.0000000000000000    0.7039260864257812 N
   0.3327727317810059    0.0000000000000000    0.2960739135742188 N
   0.1672272682189941    0.5000000000000000    0.7039260864257812 N
   0.8327727317810059    0.5000000000000000    0.2960739135742188 N
   0.1526489257812500    0.0000000000000000    0.9644775390625000 N
   0.8473510742187500    0.0000000000000000    0.0355224609375000 N
   0.6526489257812500    0.5000000000000000    0.9644775390625000 N
   0.3473510742187500    0.5000000000000000    0.0355224609375000 N
   0.5481567382812500    0.0000000000000000    0.1916809082031250 N
   0.4518432617187500    0.0000000000000000    0.8083190917968750 N
   0.0481567382812500    0.5000000000000000    0.1916809082031250 N
   0.9518432617187500    0.5000000000000000    0.8083190917968750 N
   0.3883666992187500    0.0000000000000000    0.0837020874023438 Sc
   0.6116333007812500    0.0000000000000000    0.9162979125976562 Sc
   0.8883666992187500    0.5000000000000000    0.0837020874023438 Sc
   0.1116333007812500    0.5000000000000000    0.9162979125976562 Sc
   0.9004211425781250    0.0000000000000000    0.8122920989990234 Sc
   0.0995788574218750    0.0000000000000000    0.1877079010009766 Sc
   0.4004211425781250    0.5000000000000000    0.8122920989990234 Sc
   0.5995788574218750    0.5000000000000000    0.1877079010009766 Sc
   0.7780761718750000    0.0000000000000000    0.2986450195312500 Sc
   0.2219238281250000    0.0000000000000000    0.7013549804687500 Sc
   0.2780761718750000    0.5000000000000000    0.2986450195312500 Sc
   0.7219238281250000    0.5000000000000000    0.7013549804687500 Sc
   0.5941467285156250    0.0000000000000000    0.4450988769531250 Cr
   0.4058532714843750    0.0000000000000000    0.5549011230468750 Cr
   0.0941467285156250    0.5000000000000000    0.4450988769531250 Cr
   0.9058532714843750    0.5000000000000000    0.5549011230468750 Cr
