Ag2 H6 O6
1.0
   5.0850505720174040    0.0000000000000000   -0.0003324636821145
  -2.5422368047630535    4.4039495170224958   -0.0003324636821145
   0.0000000000000000    0.0000000000000000    5.6614484786987305
Ag H O
2 6 6
direct
   0.6666666865348816    0.3333333432674408    0.4483814239501953 Ag
   0.3333333134651184    0.6666666269302368    0.9483814239501953 Ag
   0.1181640625000000    0.2363891601562500    0.1318359375000000 H
   0.7636108398437500    0.8817749023437500    0.1318359375000000 H
   0.1182250976562500    0.8818359375000000    0.1318359375000000 H
   0.8818359375000000    0.7636108398437500    0.6318359375000000 H
   0.2363891601562500    0.1182250976562500    0.6318359375000000 H
   0.8817749023437500    0.1181640625000000    0.6318359375000000 H
   0.1609802246093750    0.3219604492187500    0.6218872070312500 O
   0.6780395507812500    0.8390197753906250    0.6218872070312500 O
   0.1609802246093750    0.8390197753906250    0.6218872070312500 O
   0.8390197753906250    0.6780395507812500    0.1218872070312500 O
   0.3219604492187500    0.1609802246093750    0.1218872070312500 O
   0.8390197753906250    0.1609802246093750    0.1218872070312500 O
