Al4 Fe4 Si4
1.0
   3.4082493709198540    0.0000000000000000   -0.0002228334053659
  -0.0008472670077664   12.9581489009039981   -0.0008472116147476
   0.0000000000000000    0.0000000000000000    4.0894532203674316
Al Si Fe
4 4 4
direct
   0.5000000000000000    0.4164428710937500    0.2500000000000000 Al
   0.5000000000000000    0.5835571289062500    0.7500000000000000 Al
   0.0000000000000000    0.9164428710937500    0.2500000000000000 Al
   0.0000000000000000    0.0835571289062500    0.7500000000000000 Al
   0.0000000000000000    0.6286010742187500    0.2500000000000000 Si
   0.0000000000000000    0.3713989257812500    0.7500000000000000 Si
   0.5000000000000000    0.1286010742187500    0.2500000000000000 Si
   0.5000000000000000    0.8713989257812500    0.7500000000000000 Si
   0.0000000000000000    0.2608642578125000    0.2500000000000000 Fe
   0.0000000000000000    0.7391357421875000    0.7500000000000000 Fe
   0.5000000000000000    0.7608642578125000    0.2500000000000000 Fe
   0.5000000000000000    0.2391357421875000    0.7500000000000000 Fe
