Sn4 Mo2
1.0
   5.4505580010494992    0.0000000000000000   -0.1188125131974379
  -0.0002023582648663    3.0283489094960436   -0.0001979952838555
   0.0000000000000000    0.0000000000000000    5.0719523429870605
Mo Sn
2 4
direct
   0.0000000000000000    0.0000000000000000    0.0000000000000000 Mo
   0.5000000000000000    0.5000000000000000    0.0000000000000000 Mo
   0.6926269531250000    0.0000000000000000    0.6806030273437500 Sn
   0.3073730468750000    0.0000000000000000    0.3193969726562500 Sn
   0.1926269531250000    0.5000000000000000    0.6806030273437500 Sn
   0.8073730468750000    0.5000000000000000    0.3193969726562500 Sn
