Ca8 Bi4 O24
1.0
   8.0325517482738267    0.0000000000000000   -0.0005251730918277
  -0.0007222121028784   11.0455522065044800   -0.0007221648857576
   0.0000000000000000    0.0000000000000000    5.9234528541564941
Bi O Ca O
4 8 8 16
direct
   0.5000000000000000    0.0000000000000000    0.6041870117187500 Bi
   0.0000000000000000    0.5000000000000000    0.1041870117187500 Bi
   0.5000000000000000    0.0000000000000000    0.0982666015625000 Bi
   0.0000000000000000    0.5000000000000000    0.5982666015625000 Bi
   0.4046401977539062    0.5000000000000000    0.5800476074218750 O
   0.5953598022460938    0.5000000000000000    0.5800476074218750 O
   0.9046401977539062    0.0000000000000000    0.0800476074218750 O
   0.0953598022460938    0.0000000000000000    0.0800476074218750 O
   0.4097900390625000    0.5000000000000000    0.0589752197265625 O
   0.5902099609375000    0.5000000000000000    0.0589752197265625 O
   0.9097900390625000    0.0000000000000000    0.5589752197265625 O
   0.0902099609375000    0.0000000000000000    0.5589752197265625 O
   0.0000000000000000    0.1636962890625000    0.3383789062500000 Ca
   0.0000000000000000    0.8363037109375000    0.3383789062500000 Ca
   0.5000000000000000    0.6636962890625000    0.8383789062500000 Ca
   0.5000000000000000    0.3363037109375000    0.8383789062500000 Ca
   0.0000000000000000    0.8381042480468750    0.8362045288085938 Ca
   0.0000000000000000    0.1618957519531250    0.8362045288085938 Ca
   0.5000000000000000    0.3381042480468750    0.3362045288085938 Ca
   0.5000000000000000    0.6618957519531250    0.3362045288085938 Ca
   0.6499938964843750    0.1273193359375000    0.8389282226562500 O
   0.3500061035156250    0.8726806640625000    0.8389282226562500 O
   0.6499938964843750    0.8726806640625000    0.8389282226562500 O
   0.3500061035156250    0.1273193359375000    0.8389282226562500 O
   0.1499938964843750    0.6273193359375000    0.3389282226562500 O
   0.8500061035156250    0.3726806640625000    0.3389282226562500 O
   0.1499938964843750    0.3726806640625000    0.3389282226562500 O
   0.8500061035156250    0.6273193359375000    0.3389282226562500 O
   0.8507690429687500    0.6365528106689453    0.8363647460937500 O
   0.1492309570312500    0.3634471893310547    0.8363647460937500 O
   0.8507690429687500    0.3634471893310547    0.8363647460937500 O
   0.1492309570312500    0.6365528106689453    0.8363647460937500 O
   0.3507690429687500    0.1365528106689453    0.3363647460937500 O
   0.6492309570312500    0.8634471893310547    0.3363647460937500 O
   0.3507690429687500    0.8634471893310547    0.3363647460937500 O
   0.6492309570312500    0.1365528106689453    0.3363647460937500 O
