V4 As4 N16
1.0
   6.0806479324078122    0.0000000000000000   -0.0003975564397285
  -0.0003975824330588    6.0806479194098726   -0.0003975564397285
   0.0000000000000000    0.0000000000000000    6.0806479454040527
N V As N
4 4 4 12
direct
   0.3289184570312500    0.3289184570312500    0.3289184570312500 N
   0.1710815429687500    0.6710815429687500    0.8289184570312500 N
   0.6710815429687500    0.8289184570312500    0.1710815429687500 N
   0.8289184570312500    0.1710815429687500    0.6710815429687500 N
   0.8977661132812500    0.8977661132812500    0.8977661132812500 V
   0.6022338867187500    0.1022338867187500    0.3977661132812500 V
   0.1022338867187500    0.3977661132812500    0.6022338867187500 V
   0.3977661132812500    0.6022338867187500    0.1022338867187500 V
   0.8452301025390625    0.6547698974609375    0.3452301025390625 As
   0.6547698974609375    0.3452301025390625    0.8452301025390625 As
   0.1547698974609375    0.1547698974609375    0.1547698974609375 As
   0.3452301025390625    0.8452301025390625    0.6547698974609375 As
   0.2738037109375000    0.1209716796875000    0.4705505371093750 N
   0.2261962890625000    0.8790283203125000    0.9705505371093750 N
   0.7261962890625000    0.6209716796875000    0.0294494628906250 N
   0.7738037109375000    0.3790283203125000    0.5294494628906250 N
   0.4705505371093750    0.2738037109375000    0.1209716796875000 N
   0.9705505371093750    0.2261962890625000    0.8790283203125000 N
   0.0294494628906250    0.7261962890625000    0.6209716796875000 N
   0.5294494628906250    0.7738037109375000    0.3790283203125000 N
   0.1209716796875000    0.4705505371093750    0.2738037109375000 N
   0.8790283203125000    0.9705505371093750    0.2261962890625000 N
   0.6209716796875000    0.0294494628906250    0.7261962890625000 N
   0.3790283203125000    0.5294494628906250    0.7738037109375000 N
