Yb1 Er1 Tm3 Ge8
1.0
   4.0501508626204199    0.0000000000000000   -0.0002648013131504
  -0.0002785232643014    4.2597503480009173   -0.0002785050548771
   0.0000000000000000    0.0000000000000000   16.3510494232177734
Ge Tm Yb Ge Tm Ge Er Ge Tm
2 1 1 2 1 1 1 3 1
direct
   0.0000000000000000    0.0000000000000000    0.3289794921875000 Ge
   0.0000000000000000    0.0000000000000000    0.8026123046875000 Ge
   0.0000000000000000    0.0000000000000000    0.5013427734375000 Tm
   0.0000000000000000    0.0000000000000000    0.9703369140625000 Yb
   0.0000000000000000    0.5000000000000000    0.0988769531250000 Ge
   0.0000000000000000    0.5000000000000000    0.2460937500000000 Ge
   0.0000000000000000    0.5000000000000000    0.6905517578125000 Tm
   0.5000000000000000    0.0000000000000000    0.6529388427734375 Ge
   0.5000000000000000    0.0000000000000000    0.1664047241210938 Er
   0.5000000000000000    0.5000000000000000    0.5449218750000000 Ge
   0.5000000000000000    0.5000000000000000    0.0084075927734375 Ge
   0.5000000000000000    0.5000000000000000    0.8457298278808594 Ge
   0.5000000000000000    0.5000000000000000    0.3661499023437500 Tm
