Ga4 Cu2 As2
1.0
   4.3252534773888858    0.0000000000000000   -0.0002827876885010
  -2.1623813616832939    3.7459210469935633   -0.0002827876885010
   0.0000000000000000    0.0000000000000000    8.1242513656616211
Cu As Ga
2 2 4
direct
   0.0000000000000000    0.0000000000000000    0.2500000000000000 Cu
   0.0000000000000000    0.0000000000000000    0.7500000000000000 Cu
   0.3333333432674408    0.6666666865348816    0.2500000000000000 As
   0.6666666269302368    0.3333333134651184    0.7500000000000000 As
   0.3333333432674408    0.6666666865348816    0.9207382202148438 Ga
   0.6666666269302368    0.3333333134651184    0.4207382202148438 Ga
   0.6666666865348816    0.3333333432674408    0.0792617797851562 Ga
   0.3333333134651184    0.6666666269302368    0.5792617797851562 Ga
