Mo2 W2 Se4 S5
1.0
   3.3165497708961182    0.0000000000000000   -0.0002168380300515
  -1.6580867334531844    2.8723249758997751   -0.0002168380300515
   0.0000000000000000    0.0000000000000000   37.0883483886718750
S Mo Se W
5 2 4 2
direct
   0.0000000000000000    0.0000000000000000    0.7720947265625000 S
   0.0000000000000000    0.0000000000000000    0.6963496208190918 S
   0.0000000000000000    0.0000000000000000    0.3256988525390625 S
   0.0000000000000000    0.0000000000000000    0.2368164062500000 S
   0.0000000000000000    0.0000000000000000    0.6136474609375000 S
   0.0000000000000000    0.0000000000000000    0.0983886718750000 Mo
   0.0000000000000000    0.0000000000000000    0.4680175781250000 Mo
   0.3333333432674408    0.6666666865348816    0.4226074218750000 Se
   0.3333333432674408    0.6666666865348816    0.0476379394531250 Se
   0.3333333432674408    0.6666666865348816    0.1485290527343750 Se
   0.3333333432674408    0.6666666865348816    0.5176391601562500 Se
   0.3333333432674408    0.6666666865348816    0.6527404785156250 W
   0.3333333432674408    0.6666666865348816    0.2860107421875000 W
