Li9 Mg3 Ga3 Co9 O24
1.0
   5.4649510266802919    0.0000000000000000   -0.0003573018036249
  -2.7321654798690411    4.7329654039117957   -0.0003573018036249
   0.0000000000000000    0.0000000000000000   14.7135515213012695
Ga Mg O Li Co O
3 3 6 9 9 18
direct
   0.0000000000000000    0.0000000000000000    0.0000000000000000 Ga
   0.6666666865348816    0.3333333432674408    0.3333333432674408 Ga
   0.3333333432674408    0.6666666865348816    0.6666666865348816 Ga
   0.3333333432674408    0.6666666865348816    0.1666666716337204 Mg
   0.6666666865348816    0.3333333432674408    0.8333333134651184 Mg
   0.0000000000000000    0.0000000000000000    0.5000000000000000 Mg
   0.0000000000000000    0.0000000000000000    0.7406387329101562 O
   0.0000000000000000    0.0000000000000000    0.2593612670898438 O
   0.6666666865348816    0.3333333432674408    0.0739721059799194 O
   0.6666666865348816    0.3333333432674408    0.5926946401596069 O
   0.3333333432674408    0.6666666865348816    0.4073054790496826 O
   0.3333333432674408    0.6666666865348816    0.9260279536247253 O
   0.3333333432674408    0.1666666716337204    0.1666666716337204 Li
   0.8333333134651184    0.1666666716337204    0.1666666716337204 Li
   0.8333333134651184    0.6666666269302368    0.1666666716337204 Li
   0.1666666716337204    0.3333333432674408    0.8333333134651184 Li
   0.1666666716337204    0.8333333134651184    0.8333333134651184 Li
   0.6666666269302368    0.8333333134651184    0.8333333134651184 Li
   0.0000000000000000    0.5000000000000000    0.5000000000000000 Li
   0.5000000000000000    0.5000000000000000    0.5000000000000000 Li
   0.5000000000000000    0.0000000000000000    0.5000000000000000 Li
   0.5000000000000000    0.5000000000000000    0.0000000000000000 Co
   0.5000000000000000    0.0000000000000000    0.0000000000000000 Co
   0.0000000000000000    0.5000000000000000    0.0000000000000000 Co
   0.1666667461395264    0.8333333730697632    0.3333333432674408 Co
   0.1666666865348816    0.3333333432674408    0.3333333432674408 Co
   0.6666666865348816    0.8333333730697632    0.3333333432674408 Co
   0.8333333730697632    0.1666667461395264    0.6666666865348816 Co
   0.8333333730697632    0.6666666865348816    0.6666666865348816 Co
   0.3333333432674408    0.1666666865348816    0.6666666865348816 Co
   0.8340454101562500    0.1659545898437500    0.9203186035156250 O
   0.8340454101562500    0.6680908203125000    0.9203186035156250 O
   0.3319091796875000    0.1659545898437500    0.9203186035156250 O
   0.1659545898437500    0.8340454101562500    0.0796813964843750 O
   0.6680908203125000    0.8340454101562500    0.0796813964843750 O
   0.1659545898437500    0.3319091796875000    0.0796813964843750 O
   0.5007121562957764    0.4992879331111908    0.2536519765853882 O
   0.5007120966911316    0.0014241933822632    0.2536519765853882 O
   0.9985758662223816    0.4992879629135132    0.2536519765853882 O
   0.8326212763786316    0.1673787832260132    0.4130147695541382 O
   0.3347575664520264    0.1673787534236908    0.4130147695541382 O
   0.8326212763786316    0.6652425527572632    0.4130147695541382 O
   0.1673787832260132    0.8326212763786316    0.5869853496551514 O
   0.1673787534236908    0.3347575664520264    0.5869853496551514 O
   0.6652425527572632    0.8326212763786316    0.5869853496551514 O
   0.4992879331111908    0.5007121562957764    0.7463480830192566 O
   0.0014241933822632    0.5007120966911316    0.7463480830192566 O
   0.4992879629135132    0.9985758662223816    0.7463480830192566 O
