Ce3 Pb1
1.0
   4.9409541978136637    0.0000000000000000   -0.0003230425740118
  -0.0003230636954212    4.9409541872519238   -0.0003230425740118
   0.0000000000000000    0.0000000000000000    4.9409542083740234
Pb Ce
1 3
direct
   0.0000000000000000    0.0000000000000000    0.0000000000000000 Pb
   0.5000000000000000    0.5000000000000000    0.0000000000000000 Ce
   0.0000000000000000    0.5000000000000000    0.5000000000000000 Ce
   0.5000000000000000    0.0000000000000000    0.5000000000000000 Ce
