Rb1 Tl1 Br3
1.0
   5.4125499609658725    0.0000000000000000   -0.0003538757902535
  -0.0003538989276232    5.4125499493960536   -0.0003538757902535
   0.0000000000000000    0.0000000000000000    5.4125499725341797
Tl Rb Br
1 1 3
direct
   0.0000000000000000    0.0000000000000000    0.0000000000000000 Tl
   0.5000000000000000    0.5000000000000000    0.5000000000000000 Rb
   0.5000000000000000    0.0000000000000000    0.0000000000000000 Br
   0.0000000000000000    0.5000000000000000    0.0000000000000000 Br
   0.0000000000000000    0.0000000000000000    0.5000000000000000 Br
