Yb4 Mn4 Ge4
1.0
   7.1024494019341091    0.0000000000000000   -0.0004643624378474
  -0.0002699579358799    4.1287517371107283   -0.0002699402864437
   0.0000000000000000    0.0000000000000000    7.7705469131469727
Mn Ge Yb
4 4 4
direct
   0.8653564453125000    0.2500000000000000    0.0571289062500000 Mn
   0.6346435546875000    0.7500000000000000    0.5571289062500000 Mn
   0.1346435546875000    0.7500000000000000    0.9428710937500000 Mn
   0.3653564453125000    0.2500000000000000    0.4428710937500000 Mn
   0.2081298828125000    0.2500000000000000    0.1162109375000000 Ge
   0.2918701171875000    0.7500000000000000    0.6162109375000000 Ge
   0.7918701171875000    0.7500000000000000    0.8837890625000000 Ge
   0.7081298828125000    0.2500000000000000    0.3837890625000000 Ge
   0.9880371093750000    0.2500000000000000    0.6790771484375000 Yb
   0.5119628906250000    0.7500000000000000    0.1790771484375000 Yb
   0.0119628906250000    0.7500000000000000    0.3209228515625000 Yb
   0.4880371093750000    0.2500000000000000    0.8209228515625000 Yb
