K12 Se4 O8
1.0
  10.1069647422538971    0.0000000000000000   -3.1956854635214116
  -0.0006665814482933    7.4692515869823106   -0.0004883441885125
   0.0000000000000000    0.0000000000000000    7.2465462684631348
K O Se K
4 8 4 8
direct
   0.0000000000000000    0.2697448730468750    0.0000000000000000 K
   0.0000000000000000    0.7302551269531250    0.0000000000000000 K
   0.5000000000000000    0.7697448730468750    0.0000000000000000 K
   0.5000000000000000    0.2302551269531250    0.0000000000000000 K
   0.9565124511718750    0.0000000000000000    0.2672805786132812 O
   0.0434875488281250    0.0000000000000000    0.7327194213867188 O
   0.4565124511718750    0.5000000000000000    0.2672805786132812 O
   0.5434875488281250    0.5000000000000000    0.7327194213867188 O
   0.3328857421875000    0.0000000000000000    0.7449569702148438 O
   0.6671142578125000    0.0000000000000000    0.2550430297851562 O
   0.8328857421875000    0.5000000000000000    0.7449569702148438 O
   0.1671142578125000    0.5000000000000000    0.2550430297851562 O
   0.2232055664062500    0.0000000000000000    0.8997802734375000 Se
   0.7767944335937500    0.0000000000000000    0.1002197265625000 Se
   0.7232055664062500    0.5000000000000000    0.8997802734375000 Se
   0.2767944335937500    0.5000000000000000    0.1002197265625000 Se
   0.6255493164062500    0.2799911499023438    0.4626083374023438 K
   0.3744506835937500    0.2799911499023438    0.5373916625976562 K
   0.3744506835937500    0.7200088500976562    0.5373916625976562 K
   0.6255493164062500    0.7200088500976562    0.4626083374023438 K
   0.1255493164062500    0.7799911499023438    0.4626083374023438 K
   0.8744506835937500    0.7799911499023438    0.5373916625976562 K
   0.8744506835937500    0.2200088500976562    0.5373916625976562 K
   0.1255493164062500    0.2200088500976562    0.4626083374023438 K
