Er4 Sc4 O12
1.0
   5.4911517979560793    0.0000000000000000   -0.0003590148258986
  -0.0005183549543376    7.9277495998987018   -0.0005183210650849
   0.0000000000000000    0.0000000000000000    5.4256486892700195
Sc O Er O
4 4 4 8
direct
   0.0000000000000000    0.0000000000000000    0.0000000000000000 Sc
   0.5000000000000000    0.0000000000000000    0.5000000000000000 Sc
   0.0000000000000000    0.5000000000000000    0.0000000000000000 Sc
   0.5000000000000000    0.5000000000000000    0.5000000000000000 Sc
   0.5564575195312500    0.2500000000000000    0.3692474365234375 O
   0.9435424804687500    0.7500000000000000    0.8692474365234375 O
   0.4435424804687500    0.7500000000000000    0.6307525634765625 O
   0.0564575195312500    0.2500000000000000    0.1307525634765625 O
   0.4473953247070312    0.2500000000000000    0.9802246093750000 Er
   0.0526046752929688    0.7500000000000000    0.4802246093750000 Er
   0.5526046752929688    0.7500000000000000    0.0197753906250000 Er
   0.9473953247070312    0.2500000000000000    0.5197753906250000 Er
   0.8089599609375000    0.5653991699218750    0.3091888427734375 O
   0.6910400390625000    0.4346008300781250    0.8091888427734375 O
   0.1910400390625000    0.0653991699218750    0.6908111572265625 O
   0.3089599609375000    0.9346008300781250    0.1908111572265625 O
   0.1910400390625000    0.4346008300781250    0.6908111572265625 O
   0.3089599609375000    0.5653991699218750    0.1908111572265625 O
   0.8089599609375000    0.9346008300781250    0.3091888427734375 O
   0.6910400390625000    0.0653991699218750    0.8091888427734375 O
