Nd2 Sm4 Sn6 Ge2
1.0
   4.0894532116269948    0.0000000000000000   -0.0002673709245006
  -0.0004721016695435    7.2203492809623206   -0.0004720708042596
   0.0000000000000000    0.0000000000000000   13.7572488784790039
Nd Ge Sn Sm
2 2 6 4
direct
   0.0000000000000000    0.0000000000000000    0.0000000000000000 Nd
   0.5000000000000000    0.5000000000000000    0.5000000000000000 Nd
   0.0000000000000000    0.5000000000000000    0.5000000000000000 Ge
   0.5000000000000000    0.0000000000000000    0.0000000000000000 Ge
   0.0000000000000000    0.0000000000000000    0.5000000000000000 Sn
   0.5000000000000000    0.5000000000000000    0.0000000000000000 Sn
   0.0000000000000000    0.5000000000000000    0.6881103515625000 Sn
   0.0000000000000000    0.5000000000000000    0.3118896484375000 Sn
   0.5000000000000000    0.0000000000000000    0.1881103515625000 Sn
   0.5000000000000000    0.0000000000000000    0.8118896484375000 Sn
   0.0000000000000000    0.5000000000000000    0.8692932128906250 Sm
   0.0000000000000000    0.5000000000000000    0.1307067871093750 Sm
   0.5000000000000000    0.0000000000000000    0.3692932128906250 Sm
   0.5000000000000000    0.0000000000000000    0.6307067871093750 Sm
