Sm4 In2 Ni4
1.0
   7.4692516167263099    0.0000000000000000   -0.0004883441885125
  -0.0004883761177948    7.4692516007601029   -0.0004883441885125
   0.0000000000000000    0.0000000000000000    3.9977498054504395
In Ni Sm
2 4 4
direct
   0.0000000000000000    0.0000000000000000    0.0000000000000000 In
   0.5000000000000000    0.5000000000000000    0.0000000000000000 In
   0.3815917968750000    0.1184082031250000    0.0000000000000000 Ni
   0.6184082031250000    0.8815917968750000    0.0000000000000000 Ni
   0.8815917968750000    0.3815917968750000    0.0000000000000000 Ni
   0.1184082031250000    0.6184082031250000    0.0000000000000000 Ni
   0.8227233886718750    0.6772766113281250    0.5000000000000000 Sm
   0.1772766113281250    0.3227233886718750    0.5000000000000000 Sm
   0.3227233886718750    0.8227233886718750    0.5000000000000000 Sm
   0.6772766113281250    0.1772766113281250    0.5000000000000000 Sm
