Rb12 Er4 Br24
1.0
  11.7922506080360296    0.0000000000000000   -0.0007709844773500
  -0.0007710348864295   11.7922505828290181   -0.0007709844773500
   0.0000000000000000    0.0000000000000000   11.7922506332397461
Er Rb Br
4 12 24
direct
   0.0000000000000000    0.0000000000000000    0.0000000000000000 Er
   0.0000000000000000    0.5000000000000000    0.5000000000000000 Er
   0.5000000000000000    0.0000000000000000    0.5000000000000000 Er
   0.5000000000000000    0.5000000000000000    0.0000000000000000 Er
   0.5000000000000000    0.0000000000000000    0.0000000000000000 Rb
   0.0000000000000000    0.5000000000000000    0.0000000000000000 Rb
   0.0000000000000000    0.0000000000000000    0.5000000000000000 Rb
   0.5000000000000000    0.5000000000000000    0.5000000000000000 Rb
   0.2500000000000000    0.2500000000000000    0.2500000000000000 Rb
   0.7500000000000000    0.7500000000000000    0.2500000000000000 Rb
   0.7500000000000000    0.2500000000000000    0.7500000000000000 Rb
   0.2500000000000000    0.7500000000000000    0.7500000000000000 Rb
   0.2500000000000000    0.2500000000000000    0.7500000000000000 Rb
   0.7500000000000000    0.7500000000000000    0.7500000000000000 Rb
   0.2500000000000000    0.7500000000000000    0.2500000000000000 Rb
   0.7500000000000000    0.2500000000000000    0.2500000000000000 Rb
   0.7695693969726562    0.0000000000000000    0.0000000000000000 Br
   0.2304306030273438    0.0000000000000000    0.0000000000000000 Br
   0.0000000000000000    0.7695693969726562    0.0000000000000000 Br
   0.0000000000000000    0.2304306030273438    0.0000000000000000 Br
   0.0000000000000000    0.0000000000000000    0.7695693969726562 Br
   0.0000000000000000    0.0000000000000000    0.2304306030273438 Br
   0.7695693969726562    0.5000000000000000    0.5000000000000000 Br
   0.2304306030273438    0.5000000000000000    0.5000000000000000 Br
   0.0000000000000000    0.2695693969726562    0.5000000000000000 Br
   0.0000000000000000    0.7304306030273438    0.5000000000000000 Br
   0.0000000000000000    0.5000000000000000    0.2695693969726562 Br
   0.0000000000000000    0.5000000000000000    0.7304306030273438 Br
   0.2695693969726562    0.0000000000000000    0.5000000000000000 Br
   0.7304306030273438    0.0000000000000000    0.5000000000000000 Br
   0.5000000000000000    0.7695693969726562    0.5000000000000000 Br
   0.5000000000000000    0.2304306030273438    0.5000000000000000 Br
   0.5000000000000000    0.0000000000000000    0.2695693969726562 Br
   0.5000000000000000    0.0000000000000000    0.7304306030273438 Br
   0.2695693969726562    0.5000000000000000    0.0000000000000000 Br
   0.7304306030273438    0.5000000000000000    0.0000000000000000 Br
   0.5000000000000000    0.2695693969726562    0.0000000000000000 Br
   0.5000000000000000    0.7304306030273438    0.0000000000000000 Br
   0.5000000000000000    0.5000000000000000    0.7695693969726562 Br
   0.5000000000000000    0.5000000000000000    0.2304306030273438 Br
