P4 Pd8 Se12
1.0
   7.3190825520621106    0.0000000000000000   -2.5708183710476527
  -0.0012475074953005   13.5214490026023615   -0.0008840405180628
   0.0000000000000000    0.0000000000000000    7.2858486175537109
Pd P Se
8 4 12
direct
   0.5000000000000000    0.6260375976562500    0.5000000000000000 Pd
   0.5000000000000000    0.3739624023437500    0.5000000000000000 Pd
   0.0000000000000000    0.1260375976562500    0.5000000000000000 Pd
   0.0000000000000000    0.8739624023437500    0.5000000000000000 Pd
   0.0000000000000000    0.6591796875000000    0.5000000000000000 Pd
   0.0000000000000000    0.3408203125000000    0.5000000000000000 Pd
   0.5000000000000000    0.1591796875000000    0.5000000000000000 Pd
   0.5000000000000000    0.8408203125000000    0.5000000000000000 Pd
   0.6277465820312500    0.0000000000000000    0.6372528076171875 P
   0.3722534179687500    0.0000000000000000    0.3627471923828125 P
   0.1277465820312500    0.5000000000000000    0.6372528076171875 P
   0.8722534179687500    0.5000000000000000    0.3627471923828125 P
   0.1913223266601562    0.0000000000000000    0.7340087890625000 Se
   0.8086776733398438    0.0000000000000000    0.2659912109375000 Se
   0.6913223266601562    0.5000000000000000    0.7340087890625000 Se
   0.3086776733398438    0.5000000000000000    0.2659912109375000 Se
   0.3963928222656250    0.7369995117187500    0.7240295410156250 Se
   0.6036071777343750    0.7369995117187500    0.2759704589843750 Se
   0.6036071777343750    0.2630004882812500    0.2759704589843750 Se
   0.3963928222656250    0.2630004882812500    0.7240295410156250 Se
   0.8963928222656250    0.2369995117187500    0.7240295410156250 Se
   0.1036071777343750    0.2369995117187500    0.2759704589843750 Se
   0.1036071777343750    0.7630004882812500    0.2759704589843750 Se
   0.8963928222656250    0.7630004882812500    0.7240295410156250 Se
