Tm4 Ga6 Ge4
1.0
  11.6105941475287011    0.0000000000000000   -3.6978793619833876
  -0.0003599009770113    4.0239500752499113   -0.0002630882908767
   0.0000000000000000    0.0000000000000000    6.4998469352722168
Ga Ge Tm
6 4 4
direct
   0.0000000000000000    0.0000000000000000    0.0000000000000000 Ga
   0.5000000000000000    0.5000000000000000    0.0000000000000000 Ga
   0.3261108398437500    0.0000000000000000    0.7790527343750000 Ga
   0.6738891601562500    0.0000000000000000    0.2209472656250000 Ga
   0.8261108398437500    0.5000000000000000    0.7790527343750000 Ga
   0.1738891601562500    0.5000000000000000    0.2209472656250000 Ga
   0.1036376953125000    0.0000000000000000    0.4346313476562500 Ge
   0.8963623046875000    0.0000000000000000    0.5653686523437500 Ge
   0.6036376953125000    0.5000000000000000    0.4346313476562500 Ge
   0.3963623046875000    0.5000000000000000    0.5653686523437500 Ge
   0.6204833984375000    0.0000000000000000    0.7605476379394531 Tm
   0.3795166015625000    0.0000000000000000    0.2394523620605469 Tm
   0.1204833984375000    0.5000000000000000    0.7605476379394531 Tm
   0.8795166015625000    0.5000000000000000    0.2394523620605469 Tm
