Ti3 Nb3 S6
1.0
   3.5392477436714862    0.0000000000000000   -0.0002313981582114
  -1.7694230859077973    3.0651943713474736   -0.0002313981582114
   0.0000000000000000    0.0000000000000000   18.7614517211914062
Nb Ti S
3 3 6
direct
   0.0000000000000000    0.0000000000000000    0.0000000000000000 Nb
   0.6666666865348816    0.3333333432674408    0.3333333432674408 Nb
   0.3333333432674408    0.6666666865348816    0.6666666865348816 Nb
   0.3333333432674408    0.6666666865348816    0.1666666716337204 Ti
   0.6666666865348816    0.3333333432674408    0.8333333134651184 Ti
   0.0000000000000000    0.0000000000000000    0.5000000000000000 Ti
   0.0000000000000000    0.0000000000000000    0.7451171875000000 S
   0.0000000000000000    0.0000000000000000    0.2548828125000000 S
   0.6666666865348816    0.3333333432674408    0.0784505605697632 S
   0.6666666865348816    0.3333333432674408    0.5882161855697632 S
   0.3333333432674408    0.6666666865348816    0.4117839336395264 S
   0.3333333432674408    0.6666666865348816    0.9215494990348816 S
