Ba4 Sn2 F4
1.0
   5.5289258753416251    0.0000000000000000   -0.6731130917579644
  -0.0003492826498111    4.7313503989005934   -0.0003093385517019
   0.0000000000000000    0.0000000000000000    9.8141498565673828
F Sn Ba
4 2 4
direct
   0.0325317382812500    0.2500000000000000    0.6022338867187500 F
   0.9674682617187500    0.7500000000000000    0.3977661132812500 F
   0.4459228515625000    0.2500000000000000    0.3988647460937500 F
   0.5540771484375000    0.7500000000000000    0.6011352539062500 F
   0.1765747070312500    0.2500000000000000    0.9730834960937500 Sn
   0.8234252929687500    0.7500000000000000    0.0269165039062500 Sn
   0.9192810058593750    0.2500000000000000    0.3182983398437500 Ba
   0.0807189941406250    0.7500000000000000    0.6817016601562500 Ba
   0.5762939453125000    0.2500000000000000    0.7048339843750000 Ba
   0.4237060546875000    0.7500000000000000    0.2951660156250000 Ba
