Mn4 Co4 Rh4 O16
1.0
   5.8841504924896535    0.0000000000000000   -0.0003847093182543
  -0.0003881604283767    5.9365472539797466   -0.0003881350510426
   0.0000000000000000    0.0000000000000000    8.9888534545898438
Rh Mn Co O
4 4 4 16
direct
   0.0000000000000000    0.0000000000000000    0.5000000000000000 Rh
   0.0000000000000000    0.5000000000000000    0.5000000000000000 Rh
   0.5000000000000000    0.5000000000000000    0.0000000000000000 Rh
   0.5000000000000000    0.0000000000000000    0.0000000000000000 Rh
   0.2500000000000000    0.2500000000000000    0.2500000000000000 Mn
   0.7500000000000000    0.2500000000000000    0.2500000000000000 Mn
   0.7500000000000000    0.7500000000000000    0.7500000000000000 Mn
   0.2500000000000000    0.7500000000000000    0.7500000000000000 Mn
   0.0000000000000000    0.2500000000000000    0.8667526245117188 Co
   0.0000000000000000    0.7500000000000000    0.1332473754882812 Co
   0.5000000000000000    0.7500000000000000    0.3667526245117188 Co
   0.5000000000000000    0.2500000000000000    0.6332473754882812 Co
   0.0000000000000000    0.0257568359375000    0.2613267898559570 O
   0.0000000000000000    0.4742431640625000    0.2613267898559570 O
   0.0000000000000000    0.5257568359375000    0.7386732101440430 O
   0.0000000000000000    0.9742431640625000    0.7386732101440430 O
   0.5000000000000000    0.5257568359375000    0.7613267898559570 O
   0.5000000000000000    0.9742431640625000    0.7613267898559570 O
   0.5000000000000000    0.0257568359375000    0.2386732101440430 O
   0.5000000000000000    0.4742431640625000    0.2386732101440430 O
   0.7741699218750000    0.2500000000000000    0.4941940307617188 O
   0.2258300781250000    0.2500000000000000    0.4941940307617188 O
   0.2258300781250000    0.7500000000000000    0.5058059692382812 O
   0.7741699218750000    0.7500000000000000    0.5058059692382812 O
   0.2741699218750000    0.7500000000000000    0.9941940307617188 O
   0.7258300781250000    0.7500000000000000    0.9941940307617188 O
   0.7258300781250000    0.2500000000000000    0.0058059692382812 O
   0.2741699218750000    0.2500000000000000    0.0058059692382812 O
