Sr8 La4 Nb4 O24
1.0
   8.5434503372697677    0.0000000000000000   -0.0005585759505956
  -0.0005586124718232    8.5434503190073627   -0.0005585759505956
   0.0000000000000000    0.0000000000000000    8.5434503555297852
La Nb Sr O
4 4 8 24
direct
   0.0000000000000000    0.0000000000000000    0.0000000000000000 La
   0.0000000000000000    0.5000000000000000    0.5000000000000000 La
   0.5000000000000000    0.0000000000000000    0.5000000000000000 La
   0.5000000000000000    0.5000000000000000    0.0000000000000000 La
   0.5000000000000000    0.0000000000000000    0.0000000000000000 Nb
   0.0000000000000000    0.5000000000000000    0.0000000000000000 Nb
   0.0000000000000000    0.0000000000000000    0.5000000000000000 Nb
   0.5000000000000000    0.5000000000000000    0.5000000000000000 Nb
   0.2500000000000000    0.2500000000000000    0.2500000000000000 Sr
   0.7500000000000000    0.7500000000000000    0.2500000000000000 Sr
   0.7500000000000000    0.2500000000000000    0.7500000000000000 Sr
   0.2500000000000000    0.7500000000000000    0.7500000000000000 Sr
   0.2500000000000000    0.2500000000000000    0.7500000000000000 Sr
   0.7500000000000000    0.7500000000000000    0.7500000000000000 Sr
   0.7500000000000000    0.2500000000000000    0.2500000000000000 Sr
   0.2500000000000000    0.7500000000000000    0.2500000000000000 Sr
   0.2644042968750000    0.0000000000000000    0.0000000000000000 O
   0.7355957031250000    0.0000000000000000    0.0000000000000000 O
   0.0000000000000000    0.2644042968750000    0.0000000000000000 O
   0.0000000000000000    0.7355957031250000    0.0000000000000000 O
   0.0000000000000000    0.0000000000000000    0.2644042968750000 O
   0.0000000000000000    0.0000000000000000    0.7355957031250000 O
   0.2644042968750000    0.5000000000000000    0.5000000000000000 O
   0.7355957031250000    0.5000000000000000    0.5000000000000000 O
   0.0000000000000000    0.7644042968750000    0.5000000000000000 O
   0.0000000000000000    0.2355957031250000    0.5000000000000000 O
   0.0000000000000000    0.5000000000000000    0.7644042968750000 O
   0.0000000000000000    0.5000000000000000    0.2355957031250000 O
   0.7644042968750000    0.0000000000000000    0.5000000000000000 O
   0.2355957031250000    0.0000000000000000    0.5000000000000000 O
   0.5000000000000000    0.2644042968750000    0.5000000000000000 O
   0.5000000000000000    0.7355957031250000    0.5000000000000000 O
   0.5000000000000000    0.0000000000000000    0.7644042968750000 O
   0.5000000000000000    0.0000000000000000    0.2355957031250000 O
   0.7644042968750000    0.5000000000000000    0.0000000000000000 O
   0.2355957031250000    0.5000000000000000    0.0000000000000000 O
   0.5000000000000000    0.7644042968750000    0.0000000000000000 O
   0.5000000000000000    0.2355957031250000    0.0000000000000000 O
   0.5000000000000000    0.5000000000000000    0.2644042968750000 O
   0.5000000000000000    0.5000000000000000    0.7355957031250000 O
