Tl4 Co2 H6 S12
1.0
   9.0019483373884484    0.0000000000000000   -0.0005885528271680
  -0.0002776665568627    4.2466478166238240   -0.0002776484034487
   0.0000000000000000    0.0000000000000000   12.6175470352172852
H Co H S Tl
2 2 4 12 4
direct
   0.0000000000000000    0.5000000000000000    0.3619384765625000 H
   0.0000000000000000    0.0000000000000000    0.8619384765625000 H
   0.0000000000000000    0.5000000000000000    0.5107421875000000 Co
   0.0000000000000000    0.0000000000000000    0.0107421875000000 Co
   0.6166992187500000    0.0000000000000000    0.0349121093750000 H
   0.3833007812500000    0.0000000000000000    0.0349121093750000 H
   0.6166992187500000    0.5000000000000000    0.5349121093750000 H
   0.3833007812500000    0.5000000000000000    0.5349121093750000 H
   0.7617187500000000    0.5000000000000000    0.4761962890625000 S
   0.2382812500000000    0.5000000000000000    0.4761962890625000 S
   0.7617187500000000    0.0000000000000000    0.9761962890625000 S
   0.2382812500000000    0.0000000000000000    0.9761962890625000 S
   0.1066894531250000    0.5000000000000000    0.1789550781250000 S
   0.8933105468750000    0.5000000000000000    0.1789550781250000 S
   0.1066894531250000    0.0000000000000000    0.6789550781250000 S
   0.8933105468750000    0.0000000000000000    0.6789550781250000 S
   0.8782958984375000    0.0000000000000000    0.5050048828125000 S
   0.1217041015625000    0.0000000000000000    0.5050048828125000 S
   0.8782958984375000    0.5000000000000000    0.0050048828125000 S
   0.1217041015625000    0.5000000000000000    0.0050048828125000 S
   0.6968765258789062    0.5000000000000000    0.7926025390625000 Tl
   0.3031234741210938    0.5000000000000000    0.7926025390625000 Tl
   0.6968765258789062    0.0000000000000000    0.2926025390625000 Tl
   0.3031234741210938    0.0000000000000000    0.2926025390625000 Tl
