K8 Cl8
1.0
   8.2552490057934591    0.0000000000000000   -0.0005397331732238
  -0.0002476877359089    3.7881500559038042   -0.0002476715424643
   0.0000000000000000    0.0000000000000000   14.6218519210815430
Cl K
8 8
direct
   0.2004394531250000    0.2500000000000000    0.4965209960937500 Cl
   0.2995605468750000    0.7500000000000000    0.9965209960937500 Cl
   0.7995605468750000    0.7500000000000000    0.5034790039062500 Cl
   0.7004394531250000    0.2500000000000000    0.0034790039062500 Cl
   0.8283996582031250    0.2500000000000000    0.2500610351562500 Cl
   0.6716003417968750    0.7500000000000000    0.7500610351562500 Cl
   0.1716003417968750    0.7500000000000000    0.7499389648437500 Cl
   0.3283996582031250    0.2500000000000000    0.2499389648437500 Cl
   0.0783081054687500    0.2500000000000000    0.0964965820312500 K
   0.4216918945312500    0.7500000000000000    0.5964965820312500 K
   0.9216918945312500    0.7500000000000000    0.9035034179687500 K
   0.5783081054687500    0.2500000000000000    0.4035034179687500 K
   0.4239501953125000    0.2500000000000000    0.8449630737304688 K
   0.0760498046875000    0.7500000000000000    0.3449630737304688 K
   0.5760498046875000    0.7500000000000000    0.1550369262695312 K
   0.9239501953125000    0.2500000000000000    0.6550369262695312 K
