Tb8 Ce2 Au2 I12
1.0
  33.3376875705567457    0.0000000000000000   -3.0039029467353129
  -0.0003009795476741    4.2073492806265742   -0.0002750790415056
   0.0000000000000000    0.0000000000000000    5.4649510383605957
Au Ce I Tb
2 2 12 8
direct
   0.0000000000000000    0.0000000000000000    0.5000000000000000 Au
   0.5000000000000000    0.5000000000000000    0.5000000000000000 Au
   0.5000000000000000    0.0000000000000000    0.5000000000000000 Ce
   0.0000000000000000    0.5000000000000000    0.5000000000000000 Ce
   0.2969665527343750    0.0000000000000000    0.8004760742187500 I
   0.7030334472656250    0.0000000000000000    0.1995239257812500 I
   0.7969665527343750    0.5000000000000000    0.8004760742187500 I
   0.2030334472656250    0.5000000000000000    0.1995239257812500 I
   0.0874633789062500    0.0000000000000000    0.4512939453125000 I
   0.9125366210937500    0.0000000000000000    0.5487060546875000 I
   0.5874633789062500    0.5000000000000000    0.4512939453125000 I
   0.4125366210937500    0.5000000000000000    0.5487060546875000 I
   0.4429321289062500    0.0000000000000000    0.0507965087890625 I
   0.5570678710937500    0.0000000000000000    0.9492034912109375 I
   0.9429321289062500    0.5000000000000000    0.0507965087890625 I
   0.0570678710937500    0.5000000000000000    0.9492034912109375 I
   0.1265258789062500    0.0000000000000000    0.9526367187500000 Tb
   0.8734741210937500    0.0000000000000000    0.0473632812500000 Tb
   0.6265258789062500    0.5000000000000000    0.9526367187500000 Tb
   0.3734741210937500    0.5000000000000000    0.0473632812500000 Tb
   0.7130126953125000    0.0000000000000000    0.7040405273437500 Tb
   0.2869873046875000    0.0000000000000000    0.2959594726562500 Tb
   0.2130126953125000    0.5000000000000000    0.7040405273437500 Tb
   0.7869873046875000    0.5000000000000000    0.2959594726562500 Tb
