Tl3 Pd6
1.0
   7.1286496963727402    0.0000000000000000   -0.0004660754289452
  -3.5639204310197998    6.1738252044380726   -0.0004660754289452
   0.0000000000000000    0.0000000000000000    3.6047508716583252
Pd Tl Pd
3 3 3
direct
   0.0000000000000000    0.0000000000000000    0.5000000000000000 Pd
   0.6666666865348816    0.3333333432674408    0.0000000000000000 Pd
   0.3333333432674408    0.6666666865348816    0.0000000000000000 Pd
   0.7191162109375000    0.7191162109375000    0.0000000000000000 Tl
   0.2808837890625000    0.0000000000000000    0.0000000000000000 Tl
   0.0000000000000000    0.2808837890625000    0.0000000000000000 Tl
   0.3869628906250000    0.3869628906250000    0.5000000000000000 Pd
   0.6130371093750000    0.0000000000000000    0.5000000000000000 Pd
   0.0000000000000000    0.6130371093750000    0.5000000000000000 Pd
