In2 As2
1.0
   3.8143505968585298    0.0000000000000000   -0.0002493845491500
  -0.0002494008545957    3.8143505887050075   -0.0002493845491500
   0.0000000000000000    0.0000000000000000    6.9452505111694336
As In
2 2
direct
   0.7500000000000000    0.2500000000000000    0.0000000000000000 As
   0.2500000000000000    0.7500000000000000    0.0000000000000000 As
   0.2500000000000000    0.2500000000000000    0.3470458984375000 In
   0.7500000000000000    0.7500000000000000    0.6529541015625000 In
