Mn4 Sn4 Mo4 O16
1.0
   6.5260515073530625    0.0000000000000000   -0.0004266771948628
  -0.0004309874757972    6.5915465073137209   -0.0004309592984964
   0.0000000000000000    0.0000000000000000    9.1198520660400391
Sn Mn Mo O
4 4 4 16
direct
   0.0000000000000000    0.0000000000000000    0.5000000000000000 Sn
   0.0000000000000000    0.5000000000000000    0.5000000000000000 Sn
   0.5000000000000000    0.5000000000000000    0.0000000000000000 Sn
   0.5000000000000000    0.0000000000000000    0.0000000000000000 Sn
   0.2500000000000000    0.2500000000000000    0.7500000000000000 Mn
   0.7500000000000000    0.2500000000000000    0.7500000000000000 Mn
   0.7500000000000000    0.7500000000000000    0.2500000000000000 Mn
   0.2500000000000000    0.7500000000000000    0.2500000000000000 Mn
   0.0000000000000000    0.2500000000000000    0.1311035156250000 Mo
   0.0000000000000000    0.7500000000000000    0.8688964843750000 Mo
   0.5000000000000000    0.7500000000000000    0.6311035156250000 Mo
   0.5000000000000000    0.2500000000000000    0.3688964843750000 Mo
   0.0000000000000000    0.9957427978515625    0.2501850128173828 O
   0.0000000000000000    0.5042572021484375    0.2501850128173828 O
   0.0000000000000000    0.4957427978515625    0.7498149871826172 O
   0.0000000000000000    0.0042572021484375    0.7498149871826172 O
   0.5000000000000000    0.4957427978515625    0.7501850128173828 O
   0.5000000000000000    0.0042572021484375    0.7501850128173828 O
   0.5000000000000000    0.9957427978515625    0.2498149871826172 O
   0.5000000000000000    0.5042572021484375    0.2498149871826172 O
   0.7472229003906250    0.2500000000000000    0.5002059936523438 O
   0.2527770996093750    0.2500000000000000    0.5002059936523438 O
   0.2527770996093750    0.7500000000000000    0.4997940063476562 O
   0.7472229003906250    0.7500000000000000    0.4997940063476562 O
   0.2472229003906250    0.7500000000000000    0.0002059936523438 O
   0.7527770996093750    0.7500000000000000    0.0002059936523438 O
   0.7527770996093750    0.2500000000000000    0.9997940063476562 O
   0.2472229003906250    0.2500000000000000    0.9997940063476562 O
