Yb4 Ge16
1.0
   4.2204513459600488    0.0000000000000000   -0.0002759356617581
  -0.0017714759338546   27.0930517945802229   -0.0017713601174722
   0.0000000000000000    0.0000000000000000    3.9191484451293945
Ge Yb
16 4
direct
   0.0000000000000000    0.5546264648437500    0.0000000000000000 Ge
   0.0000000000000000    0.4453735351562500    0.0000000000000000 Ge
   0.5000000000000000    0.0546264648437500    0.0000000000000000 Ge
   0.5000000000000000    0.9453735351562500    0.0000000000000000 Ge
   0.0000000000000000    0.1214447021484375    0.0000000000000000 Ge
   0.0000000000000000    0.8785552978515625    0.0000000000000000 Ge
   0.5000000000000000    0.6214447021484375    0.0000000000000000 Ge
   0.5000000000000000    0.3785552978515625    0.0000000000000000 Ge
   0.0000000000000000    0.7773437500000000    0.0000000000000000 Ge
   0.0000000000000000    0.2226562500000000    0.0000000000000000 Ge
   0.5000000000000000    0.2773437500000000    0.0000000000000000 Ge
   0.5000000000000000    0.7226562500000000    0.0000000000000000 Ge
   0.0000000000000000    0.0580444335937500    0.5000000000000000 Ge
   0.0000000000000000    0.9419555664062500    0.5000000000000000 Ge
   0.5000000000000000    0.5580444335937500    0.5000000000000000 Ge
   0.5000000000000000    0.4419555664062500    0.5000000000000000 Ge
   0.0000000000000000    0.6668014526367188    0.5000000000000000 Yb
   0.0000000000000000    0.3331985473632812    0.5000000000000000 Yb
   0.5000000000000000    0.1668014526367188    0.5000000000000000 Yb
   0.5000000000000000    0.8331985473632812    0.5000000000000000 Yb
