Pr4 U4 Tl8
1.0
   7.7312483622295742    0.0000000000000000   -0.0005054736942034
  -0.0005055067434598    7.7312483457033254   -0.0005054736942034
   0.0000000000000000    0.0000000000000000    7.7312483787536621
U Pr Tl
4 4 8
direct
   0.0000000000000000    0.0000000000000000    0.0000000000000000 U
   0.0000000000000000    0.5000000000000000    0.5000000000000000 U
   0.5000000000000000    0.0000000000000000    0.5000000000000000 U
   0.5000000000000000    0.5000000000000000    0.0000000000000000 U
   0.5000000000000000    0.0000000000000000    0.0000000000000000 Pr
   0.0000000000000000    0.5000000000000000    0.0000000000000000 Pr
   0.0000000000000000    0.0000000000000000    0.5000000000000000 Pr
   0.5000000000000000    0.5000000000000000    0.5000000000000000 Pr
   0.2500000000000000    0.2500000000000000    0.2500000000000000 Tl
   0.7500000000000000    0.7500000000000000    0.2500000000000000 Tl
   0.7500000000000000    0.2500000000000000    0.7500000000000000 Tl
   0.2500000000000000    0.7500000000000000    0.7500000000000000 Tl
   0.2500000000000000    0.2500000000000000    0.7500000000000000 Tl
   0.7500000000000000    0.7500000000000000    0.7500000000000000 Tl
   0.2500000000000000    0.7500000000000000    0.2500000000000000 Tl
   0.7500000000000000    0.2500000000000000    0.2500000000000000 Tl
