Tb4 Dy2 Cu8 Sn8
1.0
   4.4431495571539950    0.0000000000000000   -0.0002904958055060
  -0.0004712449932828    7.2072472264223837   -0.0004712141840071
   0.0000000000000000    0.0000000000000000   13.9930486679077148
Dy Sn Tb Sn Cu
2 4 4 4 8
direct
   0.0000000000000000    0.0000000000000000    0.0000000000000000 Dy
   0.5000000000000000    0.5000000000000000    0.5000000000000000 Dy
   0.0000000000000000    0.5000000000000000    0.5000000000000000 Sn
   0.5000000000000000    0.0000000000000000    0.0000000000000000 Sn
   0.0000000000000000    0.0000000000000000    0.5000000000000000 Sn
   0.5000000000000000    0.5000000000000000    0.0000000000000000 Sn
   0.0000000000000000    0.0000000000000000    0.2061920166015625 Tb
   0.0000000000000000    0.0000000000000000    0.7938079833984375 Tb
   0.5000000000000000    0.5000000000000000    0.7061920166015625 Tb
   0.5000000000000000    0.5000000000000000    0.2938079833984375 Tb
   0.0000000000000000    0.5000000000000000    0.1519165039062500 Sn
   0.0000000000000000    0.5000000000000000    0.8480834960937500 Sn
   0.5000000000000000    0.0000000000000000    0.6519165039062500 Sn
   0.5000000000000000    0.0000000000000000    0.3480834960937500 Sn
   0.0000000000000000    0.2738418579101562    0.6459350585937500 Cu
   0.0000000000000000    0.7261581420898438    0.6459350585937500 Cu
   0.0000000000000000    0.2738418579101562    0.3540649414062500 Cu
   0.0000000000000000    0.7261581420898438    0.3540649414062500 Cu
   0.5000000000000000    0.7738418579101562    0.1459350585937500 Cu
   0.5000000000000000    0.2261581420898438    0.1459350585937500 Cu
   0.5000000000000000    0.7738418579101562    0.8540649414062500 Cu
   0.5000000000000000    0.2261581420898438    0.8540649414062500 Cu
