Li2 Co3 O1 F6
1.0
   4.8885259077472272    0.0000000000000000    0.0163179899570547
   2.3932777752318652    4.2863699958489514    1.5141526649142354
   0.0000000000000000    0.0000000000000000    5.5697488784790039
Li O F Co
2 1 6 3
direct
   0.1166467666625977    0.0097656250000000    0.5821838378906250 Li
   0.9875183105468750    0.0166015625000000    0.9661865234375000 Li
   0.3903808593750000    0.5883789062500000    0.0079956054687500 O
   0.3205566406250000    0.2910766601562500    0.6159667968750000 F
   0.8483886718750000    0.4283447265625000    0.4501953125000000 F
   0.8002929687500000    0.9071044921875000    0.6452636718750000 F
   0.7595214843750000    0.9931640625000000    0.1916503906250000 F
   0.3125000000000000    0.7392578125000000    0.3911132812500000 F
   0.9868164062500000    0.3962402343750000    0.0021972656250000 F
   0.5458984375000000    0.2784423828125000    0.3708496093750000 Co
   0.0854492187500000    0.5565185546875000    0.2250976562500000 Co
   0.6020507812500000    0.6204833984375000    0.7326660156250000 Co
