Zr2 N2 Cl2
1.0
   3.6178491038245353    0.0000000000000000   -0.0002365371626806
  -0.0002365526281290    3.6178490960910530   -0.0002365371626806
   0.0000000000000000    0.0000000000000000    9.0150508880615234
N Cl Zr
2 2 2
direct
   0.7500000000000000    0.2500000000000000    0.0000000000000000 N
   0.2500000000000000    0.7500000000000000    0.0000000000000000 N
   0.7500000000000000    0.7500000000000000    0.6871337890625000 Cl
   0.2500000000000000    0.2500000000000000    0.3128662109375000 Cl
   0.2500000000000000    0.2500000000000000    0.8745117187500000 Zr
   0.7500000000000000    0.7500000000000000    0.1254882812500000 Zr
