Si4 O16
1.0
   5.6739996022829349    0.0000000000000000   -0.0791054984266985
  -0.0005047536753145    7.6133522657322654   -0.0004977655771984
   0.0000000000000000    0.0000000000000000    5.4649510383605957
O Si
16 4
direct
   0.9135742187500000    0.9450683593750000    0.3645629882812500 O
   0.9135742187500000    0.0549316406250000    0.8645629882812500 O
   0.3110351562500000    0.4115905761718750    0.4671630859375000 O
   0.3110351562500000    0.5884094238281250    0.9671630859375000 O
   0.0426025390625000    0.2809448242187500    0.7643127441406250 O
   0.0426025390625000    0.7190551757812500    0.2643127441406250 O
   0.6322021484375000    0.1792297363281250    0.4237060546875000 O
   0.6322021484375000    0.8207702636718750    0.9237060546875000 O
   0.4821777343750000    0.2257690429687500    0.8457031250000000 O
   0.4821777343750000    0.7742309570312500    0.3457031250000000 O
   0.1115722656250000    0.7342681884765625    0.6319732666015625 O
   0.1115722656250000    0.2657318115234375    0.1319732666015625 O
   0.2812500000000000    0.0148086547851562    0.5990295410156250 O
   0.2812500000000000    0.9851913452148438    0.0990295410156250 O
   0.6889648437500000    0.4695129394531250    0.6412506103515625 O
   0.6889648437500000    0.5304870605468750    0.1412506103515625 O
   0.5159912109375000    0.6812133789062500    0.0872192382812500 Si
   0.5159912109375000    0.3187866210937500    0.5872192382812500 Si
   0.1611328125000000    0.8542022705078125    0.4179687500000000 Si
   0.1611328125000000    0.1457977294921875    0.9179687500000000 Si
