Li18 W3 Se18
1.0
   6.4081473213562816    0.0000000000000000   -0.0004189685478674
  -3.2037101185077370    5.5498282467817717   -0.0004189685478674
   0.0000000000000000    0.0000000000000000   16.3510494232177734
W Li Se
3 18 18
direct
   0.0000000000000000    0.0000000000000000    0.0000000000000000 W
   0.6666666865348816    0.3333333432674408    0.3333333432674408 W
   0.3333333432674408    0.6666666865348816    0.6666666865348816 W
   0.6825256347656250    0.9798250198364258    0.2279052734375000 Li
   0.0201749801635742    0.7027006149291992    0.2279052734375000 Li
   0.2972993850708008    0.3174743652343750    0.2279052734375000 Li
   0.3174743652343750    0.0201749801635742    0.7720947265625000 Li
   0.9798250198364258    0.2972993850708008    0.7720947265625000 Li
   0.7027006149291992    0.6825256347656250    0.7720947265625000 Li
   0.3491923809051514    0.3131583929061890    0.5612386465072632 Li
   0.6868416666984558    0.0360339581966400    0.5612386465072632 Li
   0.9639660716056824    0.6508077383041382    0.5612386465072632 Li
   0.9841410517692566    0.3535083532333374    0.1054280698299408 Li
   0.6464917659759521    0.6306327581405640    0.1054280698299408 Li
   0.3693673014640808    0.0158590078353882    0.1054280698299408 Li
   0.0158590078353882    0.6464917659759521    0.8945719599723816 Li
   0.3535083532333374    0.3693673014640808    0.8945719599723816 Li
   0.6306327581405640    0.9841410517692566    0.8945719599723816 Li
   0.6508077383041382    0.6868416666984558    0.4387614130973816 Li
   0.3131583929061890    0.9639660716056824    0.4387614130973816 Li
   0.0360339581966400    0.3491923809051514    0.4387614130973816 Li
   0.3031005859375000    0.3221435546875000    0.0776977539062500 Se
   0.6778564453125000    0.9809570312500000    0.0776977539062500 Se
   0.0190429687500000    0.6968994140625000    0.0776977539062500 Se
   0.6968994140625000    0.6778564453125000    0.9223022460937500 Se
   0.3221435546875000    0.0190429687500000    0.9223022460937500 Se
   0.9809570312500000    0.3031005859375000    0.9223022460937500 Se
   0.9697672724723816    0.6554769277572632    0.4110310971736908 Se
   0.3445231318473816    0.3142903745174408    0.4110310971736908 Se
   0.6857096552848816    0.0302327573299408    0.4110310971736908 Se
   0.3635661005973816    0.0111897885799408    0.2556355893611908 Se
   0.9888102412223816    0.3523763120174408    0.2556355893611908 Se
   0.6476237177848816    0.6364339590072632    0.2556355893611908 Se
   0.6364339590072632    0.9888102412223816    0.7443644404411316 Se
   0.0111897885799408    0.6476237177848816    0.7443644404411316 Se
   0.3523763120174408    0.3635661005973816    0.7443644404411316 Se
   0.0302327573299408    0.3445231318473816    0.5889689326286316 Se
   0.6554769277572632    0.6857096552848816    0.5889689326286316 Se
   0.3142903745174408    0.9697672724723816    0.5889689326286316 Se
