Ce4 Sm4 S16
1.0
  11.7922506080360296    0.0000000000000000   -0.0007709844773500
  -0.0002759537031884    4.2204513369384493   -0.0002759356617581
   0.0000000000000000    0.0000000000000000   11.3337488174438477
S Ce Sm
16 4 4
direct
   0.0771484375000000    0.2500000000000000    0.1167449951171875 S
   0.4228515625000000    0.7500000000000000    0.6167449951171875 S
   0.9228515625000000    0.7500000000000000    0.8832550048828125 S
   0.5771484375000000    0.2500000000000000    0.3832550048828125 S
   0.8355560302734375    0.2500000000000000    0.9443359375000000 S
   0.6644439697265625    0.7500000000000000    0.4443359375000000 S
   0.1644439697265625    0.7500000000000000    0.0556640625000000 S
   0.3355560302734375    0.2500000000000000    0.5556640625000000 S
   0.5195312500000000    0.2500000000000000    0.8797454833984375 S
   0.9804687500000000    0.7500000000000000    0.3797454833984375 S
   0.4804687500000000    0.7500000000000000    0.1202545166015625 S
   0.0195312500000000    0.2500000000000000    0.6202545166015625 S
   0.2755737304687500    0.2500000000000000    0.3073425292968750 S
   0.2244262695312500    0.7500000000000000    0.8073425292968750 S
   0.7244262695312500    0.7500000000000000    0.6926574707031250 S
   0.7755737304687500    0.2500000000000000    0.1926574707031250 S
   0.0814208984375000    0.2500000000000000    0.8596801757812500 Ce
   0.4185791015625000    0.7500000000000000    0.3596801757812500 Ce
   0.9185791015625000    0.7500000000000000    0.1403198242187500 Ce
   0.5814208984375000    0.2500000000000000    0.6403198242187500 Ce
   0.3432617187500000    0.2500000000000000    0.0616760253906250 Sm
   0.1567382812500000    0.7500000000000000    0.5616760253906250 Sm
   0.6567382812500000    0.7500000000000000    0.9383239746093750 Sm
   0.8432617187500000    0.2500000000000000    0.4383239746093750 Sm
