Zr4 Ti4 Al4
1.0
   5.5566506267040277    0.0000000000000000   -0.0003632971789394
  -0.0003701731264510    5.6614484544965871   -0.0003701489250992
   0.0000000000000000    0.0000000000000000    7.8753490447998047
Ti Al Zr
4 4 4
direct
   0.2500000000000000    0.2500000000000000    0.2500000000000000 Ti
   0.7500000000000000    0.2500000000000000    0.2500000000000000 Ti
   0.7500000000000000    0.7500000000000000    0.7500000000000000 Ti
   0.2500000000000000    0.7500000000000000    0.7500000000000000 Ti
   0.2500000000000000    0.2500000000000000    0.7500000000000000 Al
   0.7500000000000000    0.2500000000000000    0.7500000000000000 Al
   0.7500000000000000    0.7500000000000000    0.2500000000000000 Al
   0.2500000000000000    0.7500000000000000    0.2500000000000000 Al
   0.0000000000000000    0.2500000000000000    0.5023193359375000 Zr
   0.0000000000000000    0.7500000000000000    0.4976806640625000 Zr
   0.5000000000000000    0.7500000000000000    0.0023193359375000 Zr
   0.5000000000000000    0.2500000000000000    0.9976806640625000 Zr
