Pm6 Nd2
1.0
   7.3513479075666863    0.0000000000000000   -0.0004806355726930
  -3.6752569026701760    6.3666948063701252   -0.0004806355726930
   0.0000000000000000    0.0000000000000000    6.2509527206420898
Nd Pm
2 6
direct
   0.6666666865348816    0.3333333432674408    0.2500000000000000 Nd
   0.3333333134651184    0.6666666269302368    0.7500000000000000 Nd
   0.6711120605468750    0.8355560302734375    0.2500000000000000 Pm
   0.1644439697265625    0.8355560302734375    0.2500000000000000 Pm
   0.1644439697265625    0.3288879394531250    0.2500000000000000 Pm
   0.3288879394531250    0.1644439697265625    0.7500000000000000 Pm
   0.8355560302734375    0.1644439697265625    0.7500000000000000 Pm
   0.8355560302734375    0.6711120605468750    0.7500000000000000 Pm
