Ho6 Tm3 Co27
1.0
   5.2029504664797708    0.0000000000000000   -0.0003401720485268
  -2.6011800633865358    4.5060576821077740   -0.0003401720485268
   0.0000000000000000    0.0000000000000000   23.8704490661621094
Tm Co Ho Co
3 9 6 18
direct
   0.0000000000000000    0.0000000000000000    0.0000000000000000 Tm
   0.6666666865348816    0.3333333432674408    0.3333333432674408 Tm
   0.3333333432674408    0.6666666865348816    0.6666666865348816 Tm
   0.3333333432674408    0.6666666865348816    0.1666666716337204 Co
   0.6666666865348816    0.3333333432674408    0.8333333134651184 Co
   0.0000000000000000    0.0000000000000000    0.5000000000000000 Co
   0.3333333432674408    0.6666666865348816    0.3328247070312500 Co
   0.6666666865348816    0.3333333432674408    0.6671752929687500 Co
   0.0000000000000000    0.0000000000000000    0.6661580801010132 Co
   0.3333333730697632    0.6666666865348816    0.0005086362361908 Co
   0.6666666865348816    0.3333333730697632    0.9994913935661316 Co
   0.0000000000000000    0.0000000000000000    0.3338419795036316 Co
   0.3333333432674408    0.6666666865348816    0.4606933593750000 Ho
   0.6666666865348816    0.3333333432674408    0.5393066406250000 Ho
   0.0000000000000000    0.0000000000000000    0.7940267324447632 Ho
   0.3333333730697632    0.6666666865348816    0.8726400136947632 Ho
   0.6666666865348816    0.3333333730697632    0.1273601055145264 Ho
   0.0000000000000000    0.0000000000000000    0.2059733271598816 Ho
   0.3519439697265625    0.1759719848632812    0.9050598144531250 Co
   0.8240280151367188    0.1759719848632812    0.9050598144531250 Co
   0.8240280151367188    0.6480560302734375    0.9050598144531250 Co
   0.1759719848632812    0.3519439697265625    0.0949401855468750 Co
   0.1759719848632812    0.8240280151367188    0.0949401855468750 Co
   0.6480560302734375    0.8240280151367188    0.0949401855468750 Co
   0.0186107158660889    0.5093053579330444    0.2383931875228882 Co
   0.4906947016716003    0.5093053579330444    0.2383931875228882 Co
   0.4906947016716003    0.9813894033432007    0.2383931875228882 Co
   0.8426386713981628    0.6852773427963257    0.4282735586166382 Co
   0.8426386713981628    0.1573613584041595    0.4282735586166382 Co
   0.3147227168083191    0.1573613584041595    0.4282735586166382 Co
   0.6852773427963257    0.8426386713981628    0.5717265605926514 Co
   0.1573613584041595    0.8426386713981628    0.5717265605926514 Co
   0.1573613584041595    0.3147227168083191    0.5717265605926514 Co
   0.5093053579330444    0.0186107158660889    0.7616068720817566 Co
   0.5093053579330444    0.4906947016716003    0.7616068720817566 Co
   0.9813894033432007    0.4906947016716003    0.7616068720817566 Co
