Mn2 Ge8 Au2
1.0
   6.0937499869757561    0.0000000000000000   -0.0003984130599810
  -0.0003984391093195    6.0937499739498096   -0.0003984130599810
   0.0000000000000000    0.0000000000000000    8.0194492340087891
Mn Au Ge
2 2 8
direct
   0.0000000000000000    0.0000000000000000    0.2500000000000000 Mn
   0.0000000000000000    0.0000000000000000    0.7500000000000000 Mn
   0.5000000000000000    0.5000000000000000    0.0000000000000000 Au
   0.5000000000000000    0.5000000000000000    0.5000000000000000 Au
   0.9011535644531250    0.7049560546875000    0.0000000000000000 Ge
   0.0988464355468750    0.2950439453125000    0.0000000000000000 Ge
   0.2950439453125000    0.9011535644531250    0.0000000000000000 Ge
   0.7049560546875000    0.0988464355468750    0.0000000000000000 Ge
   0.0988464355468750    0.7049560546875000    0.5000000000000000 Ge
   0.9011535644531250    0.2950439453125000    0.5000000000000000 Ge
   0.7049560546875000    0.9011535644531250    0.5000000000000000 Ge
   0.2950439453125000    0.0988464355468750    0.5000000000000000 Ge
