Sr2 Ca2 Mn4 O11
1.0
   5.4518093504777996    0.0000000000000000   -0.0217656182967287
  -0.0005126553207583    7.8098497055567249   -0.0005106126986726
   0.0000000000000000    0.0000000000000000    5.6352519989013672
O Ca Sr O Ca Sr O Mn
2 1 1 1 1 1 8 4
direct
   0.9521484375000000    0.0000000000000000    0.4414062500000000 O
   0.2944335937500000    0.0000000000000000    0.9841308593750000 O
   0.3743896484375000    0.0000000000000000    0.4028320312500000 Ca
   0.8465881347656250    0.0000000000000000    0.9208984375000000 Sr
   0.4252929687500000    0.5000000000000000    0.9104003906250000 O
   0.8538818359375000    0.5000000000000000    0.9608154296875000 Ca
   0.3737792968750000    0.5000000000000000    0.4626464843750000 Sr
   0.0971679687500000    0.3028564453125000    0.2111816406250000 O
   0.0971679687500000    0.6971435546875000    0.2111816406250000 O
   0.6237792968750000    0.2454528808593750    0.1854248046875000 O
   0.6237792968750000    0.7545471191406250    0.1854248046875000 O
   0.0473632812500000    0.2965393066406250    0.7149658203125000 O
   0.0473632812500000    0.7034606933593750    0.7149658203125000 O
   0.5644531250000000    0.7955322265625000    0.6351928710937500 O
   0.5644531250000000    0.2044677734375000    0.6351928710937500 O
   0.8615722656250000    0.7585906982421875    0.4370117187500000 Mn
   0.8615722656250000    0.2414093017578125    0.4370117187500000 Mn
   0.3513183593750000    0.2557983398437500    0.9368286132812500 Mn
   0.3513183593750000    0.7442016601562500    0.9368286132812500 Mn
