Ti2 Nb2 O9
1.0
   4.4382397037378682    0.0000000000000000    0.8650176099099612
   2.3036877200155317    4.5957947075123844    1.4705950590898085
   0.0000000000000000    0.0000000000000000    8.1111488342285156
O Ti Nb
9 2 2
direct
   0.3732910156250000    0.1818847656250000    0.1566162109375000 O
   0.1418457031250000    0.0623168945312500    0.9058837890625000 O
   0.1496582031250000    0.6443481445312500    0.3013916015625000 O
   0.6286621093750000    0.6799316406250000    0.4941406250000000 O
   0.7329101562500000    0.2145996093750000    0.3779296875000000 O
   0.2525634765625000    0.6129455566406250    0.7893066406250000 O
   0.1784667968750000    0.2199401855468750    0.5393066406250000 O
   0.6547851562500000    0.1197509765625000    0.7260742187500000 O
   0.7165527343750000    0.5727233886718750    0.0535888671875000 O
   0.3529052734375000    0.4813232421875000    0.5593566894531250 Ti
   0.4461364746093750    0.8839721679687500    0.7387695312500000 Ti
   0.9342651367187500    0.4453125000000000    0.2797241210937500 Nb
   0.6435546875000000    0.2917480468750000    0.9553222656250000 Nb
