C4 O8
1.0
   4.7567419269601015    0.0000000000000000   -1.9408273451545635
  -0.0005074683801743    5.2160529731991421   -0.0003410286999552
   0.0000000000000000    0.0000000000000000    6.8404488563537598
C O
4 8
direct
   0.2318420410156250    0.2478027343750000    0.0052642822265625 C
   0.7681579589843750    0.7478027343750000    0.4947357177734375 C
   0.7681579589843750    0.7521972656250000    0.9947357177734375 C
   0.2318420410156250    0.2521972656250000    0.5052642822265625 C
   0.9464111328125000    0.7758789062500000    0.6420898437500000 O
   0.0535888671875000    0.2758789062500000    0.8579101562500000 O
   0.0535888671875000    0.2241210937500000    0.3579101562500000 O
   0.9464111328125000    0.7241210937500000    0.1420898437500000 O
   0.5621337890625000    0.7839355468750000    0.8580017089843750 O
   0.4378662109375000    0.2839355468750000    0.6419982910156250 O
   0.4378662109375000    0.2160644531250000    0.1419982910156250 O
   0.5621337890625000    0.7160644531250000    0.3580017089843750 O
