Na1 Y1 Zn1 Se4
1.0
   6.6638025655891404    0.0000000000000000   -0.6594094621850732
  -0.0002100459026888    2.9104487757965574   -0.0001902869018554
   0.0000000000000000    0.0000000000000000    8.8447532653808594
Na Zn Y Se
1 1 1 4
direct
   0.0000000000000000    0.0000000000000000    0.0000000000000000 Na
   0.0000000000000000    0.5000000000000000    0.5000000000000000 Zn
   0.5000000000000000    0.0000000000000000    0.5000000000000000 Y
   0.8830566406250000    0.0000000000000000    0.6885070800781250 Se
   0.1169433593750000    0.0000000000000000    0.3114929199218750 Se
   0.5662841796875000    0.0000000000000000    0.1648559570312500 Se
   0.4337158203125000    0.0000000000000000    0.8351440429687500 Se
