Ti2 Te4 Se4
1.0
   7.8273697292519859    0.0000000000000000   -6.4280448811280131
  -0.0005130091653385    3.7095486683751684   -0.0002425325379951
   0.0000000000000000    0.0000000000000000    6.7880482673645020
Ti Se Te
2 4 4
direct
   0.0000000000000000    0.0000000000000000    0.0000000000000000 Ti
   0.5000000000000000    0.5000000000000000    0.0000000000000000 Ti
   0.1604843139648438    0.0000000000000000    0.4605712890625000 Se
   0.8395156860351562    0.0000000000000000    0.5394287109375000 Se
   0.6604843139648438    0.5000000000000000    0.4605712890625000 Se
   0.3395156860351562    0.5000000000000000    0.5394287109375000 Se
   0.3735961914062500    0.0000000000000000    0.1318435668945312 Te
   0.6264038085937500    0.0000000000000000    0.8681564331054688 Te
   0.8735961914062500    0.5000000000000000    0.1318435668945312 Te
   0.1264038085937500    0.5000000000000000    0.8681564331054688 Te
