Ce2 Al4 Pd4
1.0
   4.3121509459837846    0.0000000000000000   -0.0002819310370726
  -0.0005731735675532    8.7661485297252728   -0.0005731360943435
   0.0000000000000000    0.0000000000000000    4.4300508499145508
Ce Pd Al
2 4 4
direct
   0.0000000000000000    0.0000000000000000    0.0000000000000000 Ce
   0.5000000000000000    0.5000000000000000    0.0000000000000000 Ce
   0.0000000000000000    0.3349227905273438    0.0000000000000000 Pd
   0.0000000000000000    0.6650772094726562    0.0000000000000000 Pd
   0.5000000000000000    0.8349227905273438    0.0000000000000000 Pd
   0.5000000000000000    0.1650772094726562    0.0000000000000000 Pd
   0.0000000000000000    0.6552124023437500    0.5000000000000000 Al
   0.0000000000000000    0.3447875976562500    0.5000000000000000 Al
   0.5000000000000000    0.1552124023437500    0.5000000000000000 Al
   0.5000000000000000    0.8447875976562500    0.5000000000000000 Al
