K8 Bi4 N8
1.0
   5.9889483323840764    0.0000000000000000   -0.0003915610644140
  -0.0005894480158045    9.0150508495230568   -0.0005894094785964
   0.0000000000000000    0.0000000000000000    5.7662506103515625
Bi N K
4 8 8
direct
   0.0000000000000000    0.0000000000000000    0.0000000000000000 Bi
   0.5000000000000000    0.5000000000000000    0.0000000000000000 Bi
   0.5000000000000000    0.5000000000000000    0.5000000000000000 Bi
   0.0000000000000000    0.0000000000000000    0.5000000000000000 Bi
   0.2280273437500000    0.8729858398437500    0.0000000000000000 N
   0.7719726562500000    0.1270141601562500    0.0000000000000000 N
   0.2719726562500000    0.3729858398437500    0.0000000000000000 N
   0.7280273437500000    0.6270141601562500    0.0000000000000000 N
   0.7280273437500000    0.3729858398437500    0.5000000000000000 N
   0.2719726562500000    0.6270141601562500    0.5000000000000000 N
   0.7719726562500000    0.8729858398437500    0.5000000000000000 N
   0.2280273437500000    0.1270141601562500    0.5000000000000000 N
   0.8690185546875000    0.6409759521484375    0.5000000000000000 K
   0.1309814453125000    0.3590240478515625    0.5000000000000000 K
   0.6309814453125000    0.1409759521484375    0.5000000000000000 K
   0.3690185546875000    0.8590240478515625    0.5000000000000000 K
   0.3690185546875000    0.1409759521484375    0.0000000000000000 K
   0.6309814453125000    0.8590240478515625    0.0000000000000000 K
   0.1309814453125000    0.6409759521484375    0.0000000000000000 K
   0.8690185546875000    0.3590240478515625    0.0000000000000000 K
