Yb12 Pm4
1.0
   8.1897506538826690    0.0000000000000000   -0.0005354508513589
  -0.0005354858606040    8.1897506363763295   -0.0005354508513589
   0.0000000000000000    0.0000000000000000    8.1897506713867188
Pm Yb
4 12
direct
   0.0000000000000000    0.0000000000000000    0.0000000000000000 Pm
   0.0000000000000000    0.5000000000000000    0.5000000000000000 Pm
   0.5000000000000000    0.0000000000000000    0.5000000000000000 Pm
   0.5000000000000000    0.5000000000000000    0.0000000000000000 Pm
   0.5000000000000000    0.0000000000000000    0.0000000000000000 Yb
   0.0000000000000000    0.5000000000000000    0.0000000000000000 Yb
   0.0000000000000000    0.0000000000000000    0.5000000000000000 Yb
   0.5000000000000000    0.5000000000000000    0.5000000000000000 Yb
   0.2500000000000000    0.2500000000000000    0.2500000000000000 Yb
   0.7500000000000000    0.7500000000000000    0.2500000000000000 Yb
   0.7500000000000000    0.2500000000000000    0.7500000000000000 Yb
   0.2500000000000000    0.7500000000000000    0.7500000000000000 Yb
   0.2500000000000000    0.2500000000000000    0.7500000000000000 Yb
   0.7500000000000000    0.7500000000000000    0.7500000000000000 Yb
   0.2500000000000000    0.7500000000000000    0.2500000000000000 Yb
   0.7500000000000000    0.2500000000000000    0.2500000000000000 Yb
