Rb6 K4 Co2 O12
1.0
   5.4350850086377189    0.0000000000000000   -0.1996512028116320
  -0.0011756718760999   17.3335494225937339   -0.0011332779481324
   0.0000000000000000    0.0000000000000000    5.5697488784790039
Co Rb K Rb O
2 2 4 4 12
direct
   0.0000000000000000    0.0000000000000000    0.0000000000000000 Co
   0.5000000000000000    0.5000000000000000    0.0000000000000000 Co
   0.5000000000000000    0.0000000000000000    0.5000000000000000 Rb
   0.0000000000000000    0.5000000000000000    0.5000000000000000 Rb
   0.2500000000000000    0.2500000000000000    0.0000000000000000 K
   0.7500000000000000    0.2500000000000000    0.0000000000000000 K
   0.7500000000000000    0.7500000000000000    0.0000000000000000 K
   0.2500000000000000    0.7500000000000000    0.0000000000000000 K
   0.2500000000000000    0.2500000000000000    0.5000000000000000 Rb
   0.7500000000000000    0.2500000000000000    0.5000000000000000 Rb
   0.7500000000000000    0.7500000000000000    0.5000000000000000 Rb
   0.2500000000000000    0.7500000000000000    0.5000000000000000 Rb
   0.7733154296875000    0.0000000000000000    0.8943481445312500 O
   0.2266845703125000    0.0000000000000000    0.1056518554687500 O
   0.2733154296875000    0.5000000000000000    0.8943481445312500 O
   0.7266845703125000    0.5000000000000000    0.1056518554687500 O
   0.9043579101562500    0.1281738281250000    0.2302951812744141 O
   0.0956420898437500    0.1281738281250000    0.7697048187255859 O
   0.0956420898437500    0.8718261718750000    0.7697048187255859 O
   0.9043579101562500    0.8718261718750000    0.2302951812744141 O
   0.4043579101562500    0.6281738281250000    0.2302951812744141 O
   0.5956420898437500    0.6281738281250000    0.7697048187255859 O
   0.5956420898437500    0.3718261718750000    0.7697048187255859 O
   0.4043579101562500    0.3718261718750000    0.2302951812744141 O
