Ac6 Ce2
1.0
   5.5173482776974527    0.0000000000000000   -0.0003607275675892
  -0.0003607511529468    5.5173482659036175   -0.0003607275675892
   0.0000000000000000    0.0000000000000000   10.8621482849121094
Ce Ac
2 6
direct
   0.0000000000000000    0.0000000000000000    0.0000000000000000 Ce
   0.5000000000000000    0.5000000000000000    0.5000000000000000 Ce
   0.5000000000000000    0.5000000000000000    0.0000000000000000 Ac
   0.0000000000000000    0.0000000000000000    0.5000000000000000 Ac
   0.0000000000000000    0.5000000000000000    0.2500000000000000 Ac
   0.5000000000000000    0.0000000000000000    0.2500000000000000 Ac
   0.0000000000000000    0.5000000000000000    0.7500000000000000 Ac
   0.5000000000000000    0.0000000000000000    0.7500000000000000 Ac
