Pr4 Ru1 Br8
1.0
   5.6204385496259812    0.0000000000000000   -0.1387101515089217
  -0.8795757568471791    7.5179471435508738   -2.2674566104113527
   0.0000000000000000    0.0000000000000000    7.9932527542114258
Ru Br Pr
1 8 4
direct
   0.0000000000000000    0.0000000000000000    0.0000000000000000 Ru
   0.7807006835937500    0.9122924804687500    0.6735839843750000 Br
   0.2192993164062500    0.0877075195312500    0.3264160156250000 Br
   0.7231445312500000    0.4731445312500000    0.3802185058593750 Br
   0.2768554687500000    0.5268554687500000    0.6197814941406250 Br
   0.1583251953125000    0.6913452148437500    0.0455322265625000 Br
   0.8416748046875000    0.3086547851562500    0.9544677734375000 Br
   0.7146301269531250    0.9187622070312500    0.2280273437500000 Br
   0.2853698730468750    0.0812377929687500    0.7719726562500000 Br
   0.3440990447998047    0.3423156738281250    0.1204223632812500 Pr
   0.6559009552001953    0.6576843261718750    0.8795776367187500 Pr
   0.8826065063476562    0.2349853515625000    0.5675659179687500 Pr
   0.1173934936523438    0.7650146484375000    0.4324340820312500 Pr
