Zr4 N8
1.0
   5.1771440214758817    0.0000000000000000   -2.0540891777658197
  -0.0005387737230716    5.5959529497742588   -0.0003658667902897
   0.0000000000000000    0.0000000000000000    5.7007474899291992
N Zr
8 4
direct
   0.6158447265625000    0.3391113281250000    0.3859863281250000 N
   0.3841552734375000    0.8391113281250000    0.1140136718750000 N
   0.3841552734375000    0.6608886718750000    0.6140136718750000 N
   0.6158447265625000    0.1608886718750000    0.8859863281250000 N
   0.8940124511718750    0.6724853515625000    0.1251220703125000 N
   0.1059875488281250    0.1724853515625000    0.3748779296875000 N
   0.1059875488281250    0.3275146484375000    0.8748779296875000 N
   0.8940124511718750    0.8275146484375000    0.6251220703125000 N
   0.7507934570312500    0.0018310546875000    0.2468261718750000 Zr
   0.2492065429687500    0.5018310546875000    0.2531738281250000 Zr
   0.2492065429687500    0.9981689453125000    0.7531738281250000 Zr
   0.7507934570312500    0.4981689453125000    0.7468261718750000 Zr
