Y2 Tm6
1.0
   6.9845495074717423    0.0000000000000000   -0.0004566540714352
  -3.4918785115523030    6.0490260606880373   -0.0004566540714352
   0.0000000000000000    0.0000000000000000    5.6221499443054199
Y Tm
2 6
direct
   0.6666666865348816    0.3333333432674408    0.2500000000000000 Y
   0.3333333134651184    0.6666666269302368    0.7500000000000000 Y
   0.8659057617187500    0.7318115234375000    0.2500000000000000 Tm
   0.2681884765625000    0.1340942382812500    0.2500000000000000 Tm
   0.8659057617187500    0.1340942382812500    0.2500000000000000 Tm
   0.1340942382812500    0.2681884765625000    0.7500000000000000 Tm
   0.7318115234375000    0.8659057617187500    0.7500000000000000 Tm
   0.1340942382812500    0.8659057617187500    0.7500000000000000 Tm
