La4 Al6 Pd10 Rh6
1.0
   7.6788472965151557    0.0000000000000000   -0.0005020476808320
  -0.0007127900670183   10.9014510642371985   -0.0007127434658958
   0.0000000000000000    0.0000000000000000    7.3120489120483398
Al Rh Pd Rh La
6 2 10 4 4
direct
   0.5000000000000000    0.2878417968750000    0.8223266601562500 Al
   0.0000000000000000    0.7121582031250000    0.3223266601562500 Al
   0.5000000000000000    0.6141967773437500    0.2847900390625000 Al
   0.0000000000000000    0.3858032226562500    0.7847900390625000 Al
   0.5000000000000000    0.9719238281250000    0.7756347656250000 Al
   0.0000000000000000    0.0280761718750000    0.2756347656250000 Al
   0.0000000000000000    0.5056152343750000    0.5004272460937500 Rh
   0.5000000000000000    0.4943847656250000    0.0004272460937500 Rh
   0.0000000000000000    0.8525390625000000    0.0119018554687500 Pd
   0.5000000000000000    0.1474609375000000    0.5119018554687500 Pd
   0.0000000000000000    0.8884277343750000    0.5865783691406250 Pd
   0.5000000000000000    0.1115722656250000    0.0865783691406250 Pd
   0.0000000000000000    0.1799316406250000    0.5604858398437500 Pd
   0.5000000000000000    0.8200683593750000    0.0604858398437500 Pd
   0.0000000000000000    0.5308837890625000    0.0889892578125000 Pd
   0.5000000000000000    0.4691162109375000    0.5889892578125000 Pd
   0.0000000000000000    0.2134399414062500    0.0378417968750000 Pd
   0.5000000000000000    0.7865600585937500    0.5378417968750000 Pd
   0.6953735351562500    0.9506835937500000    0.3343505859375000 Rh
   0.8046264648437500    0.0493164062500000    0.8343505859375000 Rh
   0.1953735351562500    0.0493164062500000    0.8343505859375000 Rh
   0.3046264648437500    0.9506835937500000    0.3343505859375000 Rh
   0.2651367187500000    0.3443908691406250    0.2844543457031250 La
   0.2348632812500000    0.6556091308593750    0.7844543457031250 La
   0.7651367187500000    0.6556091308593750    0.7844543457031250 La
   0.7348632812500000    0.3443908691406250    0.2844543457031250 La
