Sr8 Pd4 I4
1.0
   7.7312483622295742    0.0000000000000000   -0.0005054736942034
  -0.0005055067434598    7.7312483457033254   -0.0005054736942034
   0.0000000000000000    0.0000000000000000    7.7312483787536621
Pd I Sr
4 4 8
direct
   0.0000000000000000    0.0000000000000000    0.0000000000000000 Pd
   0.0000000000000000    0.5000000000000000    0.5000000000000000 Pd
   0.5000000000000000    0.0000000000000000    0.5000000000000000 Pd
   0.5000000000000000    0.5000000000000000    0.0000000000000000 Pd
   0.5000000000000000    0.0000000000000000    0.0000000000000000 I
   0.0000000000000000    0.5000000000000000    0.0000000000000000 I
   0.0000000000000000    0.0000000000000000    0.5000000000000000 I
   0.5000000000000000    0.5000000000000000    0.5000000000000000 I
   0.2500000000000000    0.2500000000000000    0.2500000000000000 Sr
   0.7500000000000000    0.7500000000000000    0.2500000000000000 Sr
   0.7500000000000000    0.2500000000000000    0.7500000000000000 Sr
   0.2500000000000000    0.7500000000000000    0.7500000000000000 Sr
   0.2500000000000000    0.2500000000000000    0.7500000000000000 Sr
   0.7500000000000000    0.7500000000000000    0.7500000000000000 Sr
   0.2500000000000000    0.7500000000000000    0.2500000000000000 Sr
   0.7500000000000000    0.2500000000000000    0.2500000000000000 Sr
