V4 O10
1.0
   5.5465591723774788    0.0000000000000000   -2.6478017809636820
  -0.0008584519937015    8.2814540241102783   -0.0005414464760806
   0.0000000000000000    0.0000000000000000    6.1068520545959473
O V
10 4
direct
   0.1320190429687500    0.9635009765625000    0.8596191406250000 O
   0.8679809570312500    0.4635009765625000    0.1403808593750000 O
   0.8143463134765625    0.9583740234375000    0.1790161132812500 O
   0.1856536865234375    0.4583740234375000    0.8209838867187500 O
   0.3803405761718750    0.9539184570312500    0.6402435302734375 O
   0.6196594238281250    0.4539184570312500    0.3597564697265625 O
   0.5191650390625000    0.2127685546875000    0.0173950195312500 O
   0.4808349609375000    0.7127685546875000    0.9826049804687500 O
   0.9874267578125000    0.7145996093750000    0.5008850097656250 O
   0.0125732421875000    0.2145996093750000    0.4991149902343750 O
   0.0274047851562500    0.9772949218750000    0.5132446289062500 V
   0.9725952148437500    0.4772949218750000    0.4867553710937500 V
   0.4794921875000000    0.9906005859375000    0.9754562377929688 V
   0.5205078125000000    0.4906005859375000    0.0245437622070312 V
