Sr8 Hf4 V4 O24
1.0
   7.7836494279439927    0.0000000000000000   -0.0005088997075749
  -0.0005089329808334    7.7836494113057322   -0.0005088997075749
   0.0000000000000000    0.0000000000000000    7.7836494445800781
Hf V Sr O
4 4 8 24
direct
   0.0000000000000000    0.0000000000000000    0.0000000000000000 Hf
   0.0000000000000000    0.5000000000000000    0.5000000000000000 Hf
   0.5000000000000000    0.0000000000000000    0.5000000000000000 Hf
   0.5000000000000000    0.5000000000000000    0.0000000000000000 Hf
   0.5000000000000000    0.0000000000000000    0.0000000000000000 V
   0.0000000000000000    0.5000000000000000    0.0000000000000000 V
   0.0000000000000000    0.0000000000000000    0.5000000000000000 V
   0.5000000000000000    0.5000000000000000    0.5000000000000000 V
   0.2500000000000000    0.2500000000000000    0.2500000000000000 Sr
   0.7500000000000000    0.7500000000000000    0.2500000000000000 Sr
   0.7500000000000000    0.2500000000000000    0.7500000000000000 Sr
   0.2500000000000000    0.7500000000000000    0.7500000000000000 Sr
   0.2500000000000000    0.2500000000000000    0.7500000000000000 Sr
   0.7500000000000000    0.7500000000000000    0.7500000000000000 Sr
   0.2500000000000000    0.7500000000000000    0.2500000000000000 Sr
   0.7500000000000000    0.2500000000000000    0.2500000000000000 Sr
   0.2556152343750000    0.0000000000000000    0.0000000000000000 O
   0.7443847656250000    0.0000000000000000    0.0000000000000000 O
   0.0000000000000000    0.2556152343750000    0.0000000000000000 O
   0.0000000000000000    0.7443847656250000    0.0000000000000000 O
   0.0000000000000000    0.0000000000000000    0.2556152343750000 O
   0.0000000000000000    0.0000000000000000    0.7443847656250000 O
   0.2556152343750000    0.5000000000000000    0.5000000000000000 O
   0.7443847656250000    0.5000000000000000    0.5000000000000000 O
   0.0000000000000000    0.7556152343750000    0.5000000000000000 O
   0.0000000000000000    0.2443847656250000    0.5000000000000000 O
   0.0000000000000000    0.5000000000000000    0.7556152343750000 O
   0.0000000000000000    0.5000000000000000    0.2443847656250000 O
   0.7556152343750000    0.0000000000000000    0.5000000000000000 O
   0.2443847656250000    0.0000000000000000    0.5000000000000000 O
   0.5000000000000000    0.2556152343750000    0.5000000000000000 O
   0.5000000000000000    0.7443847656250000    0.5000000000000000 O
   0.5000000000000000    0.0000000000000000    0.7556152343750000 O
   0.5000000000000000    0.0000000000000000    0.2443847656250000 O
   0.7556152343750000    0.5000000000000000    0.0000000000000000 O
   0.2443847656250000    0.5000000000000000    0.0000000000000000 O
   0.5000000000000000    0.7556152343750000    0.0000000000000000 O
   0.5000000000000000    0.2443847656250000    0.0000000000000000 O
   0.5000000000000000    0.5000000000000000    0.2556152343750000 O
   0.5000000000000000    0.5000000000000000    0.7443847656250000 O
