Mn2 V4 B6 Ru1 Os4
1.0
   5.4911517979560793    0.0000000000000000   -0.0003590148258986
  -0.0003590382992725    5.4911517862182411   -0.0003590148258986
   0.0000000000000000    0.0000000000000000    7.6002502441406250
Mn Ru Mn B V Os
1 1 1 6 4 4
direct
   0.0000000000000000    0.0000000000000000    0.0000000000000000 Mn
   0.0000000000000000    0.0000000000000000    0.5000000000000000 Ru
   0.5000000000000000    0.5000000000000000    0.0000000000000000 Mn
   0.0000000000000000    0.0000000000000000    0.7388782501220703 B
   0.0000000000000000    0.0000000000000000    0.2611217498779297 B
   0.4130859375000000    0.1110839843750000    0.0000000000000000 B
   0.5869140625000000    0.8889160156250000    0.0000000000000000 B
   0.8889160156250000    0.4130859375000000    0.0000000000000000 B
   0.1110839843750000    0.5869140625000000    0.0000000000000000 B
   0.2937011718750000    0.8272705078125000    0.0000000000000000 V
   0.7062988281250000    0.1727294921875000    0.0000000000000000 V
   0.1727294921875000    0.2937011718750000    0.0000000000000000 V
   0.8272705078125000    0.7062988281250000    0.0000000000000000 V
   0.4009094238281250    0.8010559082031250    0.5000000000000000 Os
   0.5990905761718750    0.1989440917968750    0.5000000000000000 Os
   0.1989440917968750    0.4009094238281250    0.5000000000000000 Os
   0.8010559082031250    0.5990905761718750    0.5000000000000000 Os
