Cu2 Ag2 O4
1.0
   3.0414509708249104    0.0000000000000000   -0.0001988519041080
  -1.5205529401147799    2.6340734166382092   -0.0001988519041080
   0.0000000000000000    0.0000000000000000   11.3075485229492188
Ag Cu O
2 2 4
direct
   0.0000000000000000    0.0000000000000000    0.0000000000000000 Ag
   0.0000000000000000    0.0000000000000000    0.5000000000000000 Ag
   0.3333333432674408    0.6666666865348816    0.2500000000000000 Cu
   0.6666666269302368    0.3333333134651184    0.7500000000000000 Cu
   0.3333333432674408    0.6666666865348816    0.0977783203125000 O
   0.6666666269302368    0.3333333134651184    0.5977783203125000 O
   0.6666666865348816    0.3333333432674408    0.9022216796875000 O
   0.3333333134651184    0.6666666269302368    0.4022216796875000 O
