Sm1 Th1 Co8 B2
1.0
   4.9671506775550371    0.0000000000000000   -0.0003247553157023
  -2.4832935461395711    4.3018413519372167   -0.0003247553157023
   0.0000000000000000    0.0000000000000000    7.9539504051208496
Th Sm Co B Co
1 1 2 2 6
direct
   0.0000000000000000    0.0000000000000000    0.0000000000000000 Th
   0.0000000000000000    0.0000000000000000    0.5000000000000000 Sm
   0.6666666865348816    0.3333333432674408    0.0000000000000000 Co
   0.3333333134651184    0.6666666269302368    0.0000000000000000 Co
   0.6666666865348816    0.3333333432674408    0.5000000000000000 B
   0.3333333134651184    0.6666666269302368    0.5000000000000000 B
   0.5000000000000000    0.0000000000000000    0.2711181640625000 Co
   0.0000000000000000    0.5000000000000000    0.2711181640625000 Co
   0.5000000000000000    0.5000000000000000    0.2711181640625000 Co
   0.0000000000000000    0.5000000000000000    0.7288818359375000 Co
   0.5000000000000000    0.0000000000000000    0.7288818359375000 Co
   0.5000000000000000    0.5000000000000000    0.7288818359375000 Co
