Ta2 Mn1 Be7 Nb2
1.0
   4.4300508404461514    0.0000000000000000   -0.0002896394034848
  -2.2147740979271342    3.8366816579029206   -0.0002896394034848
   0.0000000000000000    0.0000000000000000    5.8972487449645996
Be Mn Nb Ta Be
1 1 2 2 6
direct
   0.0000000000000000    0.0000000000000000    0.0000000000000000 Be
   0.0000000000000000    0.0000000000000000    0.5000000000000000 Mn
   0.6666666865348816    0.3333333432674408    0.9476928710937500 Nb
   0.3333333432674408    0.6666666865348816    0.0523071289062500 Nb
   0.6666666865348816    0.3333333432674408    0.5688781738281250 Ta
   0.3333333432674408    0.6666666865348816    0.4311218261718750 Ta
   0.8372039794921875    0.6743927001953125    0.2586059570312500 Be
   0.3256072998046875    0.1628112792968750    0.2586059570312500 Be
   0.8371887207031250    0.1627960205078125    0.2586059570312500 Be
   0.6743927001953125    0.8372039794921875    0.7413940429687500 Be
   0.1628112792968750    0.3256072998046875    0.7413940429687500 Be
   0.1627960205078125    0.8371887207031250    0.7413940429687500 Be
