Sb4 Cl12
1.0
   7.9243962329345825    0.0000000000000000   -1.7305143034539798
  -0.0008171109148762   10.0630530764212960   -0.0006579284989890
   0.0000000000000000    0.0000000000000000    7.1024494171142578
Cl Sb
12 4
direct
   0.2468872070312500    0.4868774414062500    0.4978637695312500 Cl
   0.7531127929687500    0.9868774414062500    0.0021362304687500 Cl
   0.7531127929687500    0.5131225585937500    0.5021362304687500 Cl
   0.2468872070312500    0.0131225585937500    0.9978637695312500 Cl
   0.0200805664062500    0.6762084960937500    0.9131774902343750 Cl
   0.9799194335937500    0.1762084960937500    0.5868225097656250 Cl
   0.9799194335937500    0.3237915039062500    0.0868225097656250 Cl
   0.0200805664062500    0.8237915039062500    0.4131774902343750 Cl
   0.4376831054687500    0.6730575561523438    0.1354980468750000 Cl
   0.5623168945312500    0.1730575561523438    0.3645019531250000 Cl
   0.5623168945312500    0.3269424438476562    0.8645019531250000 Cl
   0.4376831054687500    0.8269424438476562    0.6354980468750000 Cl
   0.1851806640625000    0.8492736816406250    0.7715454101562500 Sb
   0.8148193359375000    0.3492736816406250    0.7284545898437500 Sb
   0.8148193359375000    0.1507263183593750    0.2284545898437500 Sb
   0.1851806640625000    0.6507263183593750    0.2715454101562500 Sb
