Li4 Ni8 Rh4
1.0
   5.3208503609421367    0.0000000000000000   -0.0003478804149390
  -0.0003479031603146    5.3208503495683335   -0.0003478804149390
   0.0000000000000000    0.0000000000000000    5.3208503723144531
Rh Li Ni
4 4 8
direct
   0.0000000000000000    0.0000000000000000    0.0000000000000000 Rh
   0.0000000000000000    0.5000000000000000    0.5000000000000000 Rh
   0.5000000000000000    0.0000000000000000    0.5000000000000000 Rh
   0.5000000000000000    0.5000000000000000    0.0000000000000000 Rh
   0.5000000000000000    0.0000000000000000    0.0000000000000000 Li
   0.0000000000000000    0.5000000000000000    0.0000000000000000 Li
   0.0000000000000000    0.0000000000000000    0.5000000000000000 Li
   0.5000000000000000    0.5000000000000000    0.5000000000000000 Li
   0.2500000000000000    0.2500000000000000    0.2500000000000000 Ni
   0.7500000000000000    0.7500000000000000    0.2500000000000000 Ni
   0.7500000000000000    0.2500000000000000    0.7500000000000000 Ni
   0.2500000000000000    0.7500000000000000    0.7500000000000000 Ni
   0.2500000000000000    0.2500000000000000    0.7500000000000000 Ni
   0.7500000000000000    0.7500000000000000    0.7500000000000000 Ni
   0.2500000000000000    0.7500000000000000    0.2500000000000000 Ni
   0.7500000000000000    0.2500000000000000    0.2500000000000000 Ni
