Ba8 In8 Se20
1.0
   3.4999489709435903    0.0000000000000000   -0.0002288287806804
  -0.0013303567187463   20.3465499008134429   -0.0013302697420623
   0.0000000000000000    0.0000000000000000   14.3729496002197266
Se In Ba
20 8 8
direct
   0.0000000000000000    0.9967041015625000    0.8535766601562500 Se
   0.0000000000000000    0.0032958984375000    0.3535766601562500 Se
   0.5000000000000000    0.4967041015625000    0.8535766601562500 Se
   0.5000000000000000    0.5032958984375000    0.3535766601562500 Se
   0.0000000000000000    0.4651794433593750    0.6152343750000000 Se
   0.0000000000000000    0.5348205566406250    0.1152343750000000 Se
   0.5000000000000000    0.9651794433593750    0.6152343750000000 Se
   0.5000000000000000    0.0348205566406250    0.1152343750000000 Se
   0.0000000000000000    0.1876220703125000    0.9491577148437500 Se
   0.0000000000000000    0.8123779296875000    0.4491577148437500 Se
   0.5000000000000000    0.6876220703125000    0.9491577148437500 Se
   0.5000000000000000    0.3123779296875000    0.4491577148437500 Se
   0.0000000000000000    0.8436279296875000    0.0642700195312500 Se
   0.0000000000000000    0.1563720703125000    0.5642700195312500 Se
   0.5000000000000000    0.3436279296875000    0.0642700195312500 Se
   0.5000000000000000    0.6563720703125000    0.5642700195312500 Se
   0.5000000000000000    0.2874298095703125    0.7447967529296875 Se
   0.5000000000000000    0.7125701904296875    0.2447967529296875 Se
   0.0000000000000000    0.7874298095703125    0.7447967529296875 Se
   0.0000000000000000    0.2125701904296875    0.2447967529296875 Se
   0.5000000000000000    0.5678710937500000    0.9948577880859375 In
   0.5000000000000000    0.4321289062500000    0.4948577880859375 In
   0.0000000000000000    0.0678710937500000    0.9948577880859375 In
   0.0000000000000000    0.9321289062500000    0.4948577880859375 In
   0.0000000000000000    0.7144775390625000    0.1082763671875000 In
   0.0000000000000000    0.2855224609375000    0.6082763671875000 In
   0.5000000000000000    0.2144775390625000    0.1082763671875000 In
   0.5000000000000000    0.7855224609375000    0.6082763671875000 In
   0.0000000000000000    0.3822631835937500    0.2496566772460938 Ba
   0.0000000000000000    0.6177368164062500    0.7496566772460938 Ba
   0.5000000000000000    0.8822631835937500    0.2496566772460938 Ba
   0.5000000000000000    0.1177368164062500    0.7496566772460938 Ba
   0.0000000000000000    0.3684082031250000    0.8922119140625000 Ba
   0.0000000000000000    0.6315917968750000    0.3922119140625000 Ba
   0.5000000000000000    0.8684082031250000    0.8922119140625000 Ba
   0.5000000000000000    0.1315917968750000    0.3922119140625000 Ba
