Y8 Fe4 C16
1.0
   6.7880482528563268    0.0000000000000000   -0.0004438067005537
  -0.0004643927991371    7.1024493867519753   -0.0004643624378474
   0.0000000000000000    0.0000000000000000    6.9976515769958496
Fe C Y
4 16 8
direct
   0.0000000000000000    0.0000000000000000    0.0000000000000000 Fe
   0.5000000000000000    0.5000000000000000    0.0000000000000000 Fe
   0.5000000000000000    0.5000000000000000    0.5000000000000000 Fe
   0.0000000000000000    0.0000000000000000    0.5000000000000000 Fe
   0.8075103759765625    0.0775756835937500    0.0000000000000000 C
   0.1924896240234375    0.9224243164062500    0.0000000000000000 C
   0.6924896240234375    0.5775756835937500    0.0000000000000000 C
   0.3075103759765625    0.4224243164062500    0.0000000000000000 C
   0.3075103759765625    0.5775756835937500    0.5000000000000000 C
   0.6924896240234375    0.4224243164062500    0.5000000000000000 C
   0.1924896240234375    0.0775756835937500    0.5000000000000000 C
   0.8075103759765625    0.9224243164062500    0.5000000000000000 C
   0.8375244140625000    0.3403930664062500    0.5000000000000000 C
   0.1624755859375000    0.6596069335937500    0.5000000000000000 C
   0.6624755859375000    0.8403930664062500    0.5000000000000000 C
   0.3375244140625000    0.1596069335937500    0.5000000000000000 C
   0.3375244140625000    0.8403930664062500    0.0000000000000000 C
   0.6624755859375000    0.1596069335937500    0.0000000000000000 C
   0.1624755859375000    0.3403930664062500    0.0000000000000000 C
   0.8375244140625000    0.6596069335937500    0.0000000000000000 C
   0.8630981445312500    0.6475830078125000    0.5000000000000000 Y
   0.1369018554687500    0.3524169921875000    0.5000000000000000 Y
   0.6369018554687500    0.1475830078125000    0.5000000000000000 Y
   0.3630981445312500    0.8524169921875000    0.5000000000000000 Y
   0.3630981445312500    0.1475830078125000    0.0000000000000000 Y
   0.6369018554687500    0.8524169921875000    0.0000000000000000 Y
   0.1369018554687500    0.6475830078125000    0.0000000000000000 Y
   0.8630981445312500    0.3524169921875000    0.0000000000000000 Y
