Sm4 Dy16 Tl12
1.0
  12.9581489286032241    0.0000000000000000   -0.0008472116147476
  -0.0008472670077664   12.9581489009039981   -0.0008472116147476
   0.0000000000000000    0.0000000000000000    7.3906464576721191
Tl Sm Tl Dy
4 4 8 16
direct
   0.0000000000000000    0.0000000000000000    0.2500000000000000 Tl
   0.0000000000000000    0.0000000000000000    0.7500000000000000 Tl
   0.5000000000000000    0.5000000000000000    0.7500000000000000 Tl
   0.5000000000000000    0.5000000000000000    0.2500000000000000 Tl
   0.5000000000000000    0.0000000000000000    0.2500000000000000 Sm
   0.0000000000000000    0.5000000000000000    0.2500000000000000 Sm
   0.5000000000000000    0.0000000000000000    0.7500000000000000 Sm
   0.0000000000000000    0.5000000000000000    0.7500000000000000 Sm
   0.1637983322143555    0.3362016677856445    0.0000000000000000 Tl
   0.8362016677856445    0.6637983322143555    0.0000000000000000 Tl
   0.6637983322143555    0.1637983322143555    0.0000000000000000 Tl
   0.3362016677856445    0.8362016677856445    0.0000000000000000 Tl
   0.8362016677856445    0.3362016677856445    0.5000000000000000 Tl
   0.1637983322143555    0.6637983322143555    0.5000000000000000 Tl
   0.3362016677856445    0.1637983322143555    0.5000000000000000 Tl
   0.6637983322143555    0.8362016677856445    0.5000000000000000 Tl
   0.7844848632812500    0.9194335937500000    0.0000000000000000 Dy
   0.2155151367187500    0.0805664062500000    0.0000000000000000 Dy
   0.0805664062500000    0.7844848632812500    0.0000000000000000 Dy
   0.9194335937500000    0.2155151367187500    0.0000000000000000 Dy
   0.2155151367187500    0.9194335937500000    0.5000000000000000 Dy
   0.7844848632812500    0.0805664062500000    0.5000000000000000 Dy
   0.9194335937500000    0.7844848632812500    0.5000000000000000 Dy
   0.0805664062500000    0.2155151367187500    0.5000000000000000 Dy
   0.2844848632812500    0.4194335937500000    0.5000000000000000 Dy
   0.7155151367187500    0.5805664062500000    0.5000000000000000 Dy
   0.5805664062500000    0.2844848632812500    0.5000000000000000 Dy
   0.4194335937500000    0.7155151367187500    0.5000000000000000 Dy
   0.7155151367187500    0.4194335937500000    0.0000000000000000 Dy
   0.2844848632812500    0.5805664062500000    0.0000000000000000 Dy
   0.4194335937500000    0.2844848632812500    0.0000000000000000 Dy
   0.5805664062500000    0.7155151367187500    0.0000000000000000 Dy
