K2 I2 O12
1.0
   5.7138495323128682    0.0000000000000000   -0.0003735749384706
  -0.0003735993638246    5.7138495200989938   -0.0003735749384706
   0.0000000000000000    0.0000000000000000    8.4386482238769531
I K O
2 2 12
direct
   0.0000000000000000    0.0000000000000000    0.0000000000000000 I
   0.5000000000000000    0.5000000000000000    0.5000000000000000 I
   0.0000000000000000    0.0000000000000000    0.5000000000000000 K
   0.5000000000000000    0.5000000000000000    0.0000000000000000 K
   0.0000000000000000    0.5000000000000000    0.2500000000000000 O
   0.5000000000000000    0.0000000000000000    0.7500000000000000 O
   0.0000000000000000    0.5000000000000000    0.7500000000000000 O
   0.5000000000000000    0.0000000000000000    0.2500000000000000 O
   0.8330078125000000    0.8330078125000000    0.8728942871093750 O
   0.1669921875000000    0.1669921875000000    0.8728942871093750 O
   0.8330078125000000    0.1669921875000000    0.1271057128906250 O
   0.1669921875000000    0.8330078125000000    0.1271057128906250 O
   0.3330078125000000    0.3330078125000000    0.3728942871093750 O
   0.6669921875000000    0.6669921875000000    0.3728942871093750 O
   0.3330078125000000    0.6669921875000000    0.6271057128906250 O
   0.6669921875000000    0.3330078125000000    0.6271057128906250 O
