Ce4 H6 C2 O8
1.0
   4.6002517770239333    0.0000000000000000   -0.0304097876563122
  -0.0002846632242425    4.3252534680214403   -0.0002827876885010
   0.0000000000000000    0.0000000000000000    9.8665513992309570
H C O Ce O
6 2 4 4 4
direct
   0.6847534179687500    0.2500000000000000    0.1186828613281250 H
   0.3152465820312500    0.7500000000000000    0.8813171386718750 H
   0.1325225830078125    0.2500000000000000    0.3404541015625000 H
   0.8674774169921875    0.7500000000000000    0.6595458984375000 H
   0.4530639648437500    0.2500000000000000    0.2468261718750000 H
   0.5469360351562500    0.7500000000000000    0.7531738281250000 H
   0.4316406250000000    0.2500000000000000    0.0850219726562500 C
   0.5683593750000000    0.7500000000000000    0.9149780273437500 C
   0.6210327148437500    0.2500000000000000    0.2189636230468750 O
   0.3789672851562500    0.7500000000000000    0.7810363769531250 O
   0.1996688842773438    0.2500000000000000    0.0281372070312500 O
   0.8003311157226562    0.7500000000000000    0.9718627929687500 O
   0.8111267089843750    0.2500000000000000    0.8521423339843750 Ce
   0.1888732910156250    0.7500000000000000    0.1478576660156250 Ce
   0.2784347534179688    0.2500000000000000    0.5994262695312500 Ce
   0.7215652465820312    0.7500000000000000    0.4005737304687500 Ce
   0.2046508789062500    0.5046386718750000    0.3723754882812500 O
   0.7953491210937500    0.0046386718750000    0.6276245117187500 O
   0.7953491210937500    0.4953613281250000    0.6276245117187500 O
   0.2046508789062500    0.9953613281250000    0.3723754882812500 O
