Li4 Co4 O12
1.0
   5.4518527868096047    0.0000000000000000   -0.0003564454327797
  -0.0003564687381596    5.4518527751557722   -0.0003564454327797
   0.0000000000000000    0.0000000000000000    7.2465462684631348
Co O Li O
4 4 4 8
direct
   0.0000000000000000    0.0000000000000000    0.2500000000000000 Co
   0.0000000000000000    0.0000000000000000    0.7500000000000000 Co
   0.5000000000000000    0.5000000000000000    0.0000000000000000 Co
   0.5000000000000000    0.5000000000000000    0.5000000000000000 Co
   0.0000000000000000    0.0000000000000000    0.4332275390625000 O
   0.0000000000000000    0.0000000000000000    0.9332275390625000 O
   0.0000000000000000    0.0000000000000000    0.0667724609375000 O
   0.0000000000000000    0.0000000000000000    0.5667724609375000 O
   0.7619419097900391    0.7619419097900391    0.0000000000000000 Li
   0.2380580902099609    0.2380580902099609    0.0000000000000000 Li
   0.2380580902099609    0.7619419097900391    0.5000000000000000 Li
   0.7619419097900391    0.2380580902099609    0.5000000000000000 Li
   0.6760406494140625    0.6760406494140625    0.7589416503906250 O
   0.3239593505859375    0.3239593505859375    0.7589416503906250 O
   0.3239593505859375    0.6760406494140625    0.2589416503906250 O
   0.6760406494140625    0.3239593505859375    0.2589416503906250 O
   0.3239593505859375    0.6760406494140625    0.7410583496093750 O
   0.6760406494140625    0.3239593505859375    0.7410583496093750 O
   0.6760406494140625    0.6760406494140625    0.2410583496093750 O
   0.3239593505859375    0.3239593505859375    0.2410583496093750 O
