Te1 Mo3 W1 Se5 S2
1.0
   3.3951473163519101    0.0000000000000000   -0.0002219767851134
  -1.6973810472445374    2.9403950211130843   -0.0002219767851134
   0.0000000000000000    0.0000000000000000   39.6690521240234375
Se Mo S Se Mo Te W
4 2 2 1 1 1 1
direct
   0.3333333432674408    0.6666666865348816    0.3243408203125000 Se
   0.3333333432674408    0.6666666865348816    0.2406005859375000 Se
   0.3333333432674408    0.6666666865348816    0.6177978515625000 Se
   0.3333333432674408    0.6666666865348816    0.7037048339843750 Se
   0.3333333432674408    0.6666666865348816    0.4675903320312500 Mo
   0.3333333432674408    0.6666666865348816    0.0950317382812500 Mo
   0.6666666865348816    0.3333333432674408    0.4356842041015625 S
   0.6666666865348816    0.3333333432674408    0.0569267272949219 S
   0.6666666865348816    0.3333333432674408    0.1405029296875000 Se
   0.6666666865348816    0.3333333432674408    0.2829589843750000 Mo
   0.6666666865348816    0.3333333432674408    0.5206909179687500 Te
   0.6666666865348816    0.3333333432674408    0.6610107421875000 W
