Dy1 Al2 Cu3
1.0
   5.2946500665035066    0.0000000000000000   -0.0003461674238413
  -2.6470246611660038    4.5854748685282960   -0.0003461674238413
   0.0000000000000000    0.0000000000000000    3.6702499389648438
Dy Al Cu
1 2 3
direct
   0.0000000000000000    0.0000000000000000    0.0000000000000000 Dy
   0.6666666865348816    0.3333333432674408    0.0000000000000000 Al
   0.3333333134651184    0.6666666269302368    0.0000000000000000 Al
   0.5000000000000000    0.0000000000000000    0.5000000000000000 Cu
   0.0000000000000000    0.5000000000000000    0.5000000000000000 Cu
   0.5000000000000000    0.5000000000000000    0.5000000000000000 Cu
