V4 O9 F5
1.0
   5.3077512340473572    0.0000000000000000   -0.0038207983507620
  -0.0362885314864536    5.2887075699601542   -0.5828413733491916
   0.0000000000000000    0.0000000000000000    7.4037485122680664
O F V
9 5 4
direct
   0.8156738281250000    0.4145202636718750    0.6940917968750000 O
   0.4438476562500000    0.4787597656250000    0.3394165039062500 O
   0.6198730468750000    0.3288726806640625    0.0223388671875000 O
   0.9519042968750000    0.0825195312500000    0.8648071289062500 O
   0.7915039062500000    0.8574829101562500    0.1441650390625000 O
   0.3593750000000000    0.0996704101562500    0.8862304687500000 O
   0.6834716796875000    0.0931396484375000    0.5208740234375000 O
   0.0910644531250000    0.8425292968750000    0.5579223632812500 O
   0.7963867187500000    0.6517333984375000    0.3635253906250000 O
   0.2312011718750000    0.6181640625000000    0.0085449218750000 F
   0.3098144531250000    0.9252929687500000    0.2590332031250000 F
   0.3339843750000000    0.3474121093750000    0.6352539062500000 F
   0.9909667968750000    0.2692871093750000    0.3164062500000000 F
   0.5615234375000000    0.7712402343750000    0.7663574218750000 F
   0.6621093750000000    0.1303710937500000    0.8234863281250000 V
   0.5253906250000000    0.6430664062500000    0.1186523437500000 V
   0.6320800781250000    0.4377441406250000    0.5095214843750000 V
   0.9533691406250000    0.9291992187500000    0.3680419921875000 V
