Np4 Pt4 C8
1.0
   5.7531480666221855    0.0000000000000000   -0.0003761443004136
  -0.0005294900932955    8.0980510365486094   -0.0005294554760444
   0.0000000000000000    0.0000000000000000    5.6090478897094727
Pt Np C
4 4 8
direct
   0.0000000000000000    0.0000000000000000    0.0000000000000000 Pt
   0.0000000000000000    0.5000000000000000    0.0000000000000000 Pt
   0.5000000000000000    0.5000000000000000    0.5000000000000000 Pt
   0.5000000000000000    0.0000000000000000    0.5000000000000000 Pt
   0.0000000000000000    0.2500000000000000    0.5111694335937500 Np
   0.0000000000000000    0.7500000000000000    0.4888305664062500 Np
   0.5000000000000000    0.7500000000000000    0.0111694335937500 Np
   0.5000000000000000    0.2500000000000000    0.9888305664062500 Np
   0.2500000000000000    0.0699615478515625    0.2500000000000000 C
   0.7500000000000000    0.4300384521484375    0.2500000000000000 C
   0.7500000000000000    0.5699615478515625    0.7500000000000000 C
   0.2500000000000000    0.9300384521484375    0.7500000000000000 C
   0.7500000000000000    0.9300384521484375    0.7500000000000000 C
   0.2500000000000000    0.5699615478515625    0.7500000000000000 C
   0.2500000000000000    0.4300384521484375    0.2500000000000000 C
   0.7500000000000000    0.0699615478515625    0.2500000000000000 C
