K3 Mn12 O24
1.0
   6.0282506813906513    0.0000000000000000   -0.0003941306757643
  -3.0137833505339655    5.2208156636421403   -0.0003941306757643
   0.0000000000000000    0.0000000000000000   15.7091522216796875
Mn K O Mn O
3 3 6 9 18
direct
   0.0000000000000000    0.0000000000000000    0.0000000000000000 Mn
   0.6666666865348816    0.3333333432674408    0.3333333432674408 Mn
   0.3333333432674408    0.6666666865348816    0.6666666865348816 Mn
   0.3333333432674408    0.6666666865348816    0.1666666716337204 K
   0.6666666865348816    0.3333333432674408    0.8333333134651184 K
   0.0000000000000000    0.0000000000000000    0.5000000000000000 K
   0.3333333432674408    0.6666666865348816    0.3905029296875000 O
   0.6666666865348816    0.3333333432674408    0.6094970703125000 O
   0.0000000000000000    0.0000000000000000    0.7238363027572632 O
   0.3333333730697632    0.6666666865348816    0.9428304433822632 O
   0.6666666865348816    0.3333333730697632    0.0571696758270264 O
   0.0000000000000000    0.0000000000000000    0.2761637568473816 O
   0.5000000000000000    0.5000000000000000    0.0000000000000000 Mn
   0.5000000000000000    0.0000000000000000    0.0000000000000000 Mn
   0.0000000000000000    0.5000000000000000    0.0000000000000000 Mn
   0.1666667461395264    0.8333333730697632    0.3333333432674408 Mn
   0.1666666865348816    0.3333333432674408    0.3333333432674408 Mn
   0.6666666865348816    0.8333333730697632    0.3333333432674408 Mn
   0.8333333730697632    0.1666667461395264    0.6666666865348816 Mn
   0.8333333730697632    0.6666666865348816    0.6666666865348816 Mn
   0.3333333432674408    0.1666666865348816    0.6666666865348816 Mn
   0.1682128906250000    0.3364257812500000    0.6084594726562500 O
   0.6635742187500000    0.8317871093750000    0.6084594726562500 O
   0.1682128906250000    0.8317871093750000    0.6084594726562500 O
   0.3364257812500000    0.1682128906250000    0.3915405273437500 O
   0.8317871093750000    0.6635742187500000    0.3915405273437500 O
   0.8317871093750000    0.1682128906250000    0.3915405273437500 O
   0.8348795771598816    0.6697591543197632    0.9417928457260132 O
   0.3302409052848816    0.1651204526424408    0.9417928457260132 O
   0.8348795771598816    0.1651204526424408    0.9417928457260132 O
   0.0030925273895264    0.5015462636947632    0.7248739004135132 O
   0.4984537959098816    0.9969075918197632    0.7248739004135132 O
   0.4984537959098816    0.5015462636947632    0.7248739004135132 O
   0.5015462636947632    0.0030925273895264    0.2751262187957764 O
   0.9969075918197632    0.4984537959098816    0.2751262187957764 O
   0.5015462636947632    0.4984537959098816    0.2751262187957764 O
   0.6697591543197632    0.8348795771598816    0.0582072138786316 O
   0.1651204526424408    0.3302409052848816    0.0582072138786316 O
   0.1651204526424408    0.8348795771598816    0.0582072138786316 O
