Cd4 Bi8 S16
1.0
  14.1436153271357199    0.0000000000000000   -8.7399628283155906
  -0.0004764483031690    4.0632485977202677   -0.0002656576528197
   0.0000000000000000    0.0000000000000000   12.6699485778808594
Cd S Bi
4 16 8
direct
   0.0000000000000000    0.0000000000000000    0.0000000000000000 Cd
   0.5000000000000000    0.5000000000000000    0.0000000000000000 Cd
   0.5000000000000000    0.0000000000000000    0.5000000000000000 Cd
   0.0000000000000000    0.5000000000000000    0.5000000000000000 Cd
   0.8829345703125000    0.0000000000000000    0.3782653808593750 S
   0.1170654296875000    0.0000000000000000    0.6217346191406250 S
   0.3829345703125000    0.5000000000000000    0.3782653808593750 S
   0.6170654296875000    0.5000000000000000    0.6217346191406250 S
   0.6403808593750000    0.0000000000000000    0.3872070312500000 S
   0.3596191406250000    0.0000000000000000    0.6127929687500000 S
   0.1403808593750000    0.5000000000000000    0.3872070312500000 S
   0.8596191406250000    0.5000000000000000    0.6127929687500000 S
   0.2145385742187500    0.0000000000000000    0.1186523437500000 S
   0.7854614257812500    0.0000000000000000    0.8813476562500000 S
   0.7145385742187500    0.5000000000000000    0.1186523437500000 S
   0.2854614257812500    0.5000000000000000    0.8813476562500000 S
   0.4501037597656250    0.0000000000000000    0.1018867492675781 S
   0.5498962402343750    0.0000000000000000    0.8981132507324219 S
   0.9501037597656250    0.5000000000000000    0.1018867492675781 S
   0.0498962402343750    0.5000000000000000    0.8981132507324219 S
   0.8502502441406250    0.0000000000000000    0.1379394531250000 Bi
   0.1497497558593750    0.0000000000000000    0.8620605468750000 Bi
   0.3502502441406250    0.5000000000000000    0.1379394531250000 Bi
   0.6497497558593750    0.5000000000000000    0.8620605468750000 Bi
   0.2491149902343750    0.0000000000000000    0.3488159179687500 Bi
   0.7508850097656250    0.0000000000000000    0.6511840820312500 Bi
   0.7491149902343750    0.5000000000000000    0.3488159179687500 Bi
   0.2508850097656250    0.5000000000000000    0.6511840820312500 Bi
