Cd6 Si3 B1 C2 N1 Cl1 O7
1.0
   7.8622507880970423    0.0000000000000000   -0.0005140387120441
  -3.9306793587792881    6.8091664125206259   -0.0005140387120441
   0.0000000000000000    0.0000000000000000    5.4780492782592773
C N B Cl C O Si Cd O
1 1 1 1 1 1 3 6 6
direct
   0.0000000000000000    0.0000000000000000    0.6800537109375000 C
   0.0000000000000000    0.0000000000000000    0.4760742187500000 N
   0.3333333432674408    0.6666666865348816    0.0228271484375000 B
   0.3333333432674408    0.6666666865348816    0.3549194335937500 Cl
   0.6666666865348816    0.3333333432674408    0.6641845703125000 C
   0.6666666865348816    0.3333333432674408    0.0852050781250000 O
   0.7699584960937500    0.5399169921875000    0.8624267578125000 Si
   0.4600830078125000    0.2300415039062500    0.8624267578125000 Si
   0.7699584960937500    0.2300415039062500    0.8624267578125000 Si
   0.1989440917968750    0.8010559082031250    0.6488037109375000 Cd
   0.1989440917968750    0.3978881835937500    0.6488037109375000 Cd
   0.6021118164062500    0.8010559082031250    0.6488037109375000 Cd
   0.1287231445312500    0.2574462890625000    0.1750488281250000 Cd
   0.7425537109375000    0.8712768554687500    0.1750488281250000 Cd
   0.1287231445312500    0.8712768554687500    0.1750488281250000 Cd
   0.3391113281250000    0.0193786621093750    0.9173583984375000 O
   0.9806213378906250    0.3197326660156250    0.9173583984375000 O
   0.6802673339843750    0.6608886718750000    0.9173583984375000 O
   0.9806213378906250    0.6608886718750000    0.9173583984375000 O
   0.6802673339843750    0.0193786621093750    0.9173583984375000 O
   0.3391113281250000    0.3197326660156250    0.9173583984375000 O
