Li5 Mn2 Fe1 Co2 O8
1.0
   5.1096806109132853    0.0000000000000000   -0.7446243650593671
  -1.8901550089920411    5.4029037453662134   -1.3635146961281861
   0.0000000000000000    0.0000000000000000    6.4081473350524902
Fe Li O Mn Co
1 5 8 2 2
direct
   0.0000000000000000    0.0000000000000000    0.0000000000000000 Fe
   0.5000000000000000    0.5000000000000000    0.0000000000000000 Li
   0.3241271972656250    0.0984191894531250    0.6167297363281250 Li
   0.6758728027343750    0.9015808105468750    0.3832702636718750 Li
   0.9170837402343750    0.3191833496093750    0.8061218261718750 Li
   0.0829162597656250    0.6808166503906250    0.1938781738281250 Li
   0.8637695312500000    0.2422485351562500    0.4702758789062500 O
   0.1362304687500000    0.7577514648437500    0.5297241210937500 O
   0.3701171875000000    0.8924942016601562    0.1243286132812500 O
   0.6298828125000000    0.1075057983398438    0.8756713867187500 O
   0.1713562011718750    0.3492126464843750    0.1081542968750000 O
   0.8286437988281250    0.6507873535156250    0.8918457031250000 O
   0.6808776855468750    0.5592041015625000    0.2939834594726562 O
   0.3191223144531250    0.4407958984375000    0.7060165405273438 O
   0.8010253906250000    0.5813751220703125    0.5808715820312500 Mn
   0.1989746093750000    0.4186248779296875    0.4191284179687500 Mn
   0.4162597656250000    0.7960586547851562    0.8110961914062500 Co
   0.5837402343750000    0.2039413452148438    0.1889038085937500 Co
