Rb8 Na4 Tb4 Cl24
1.0
  10.8097514875163085    0.0000000000000000   -0.0007067480905813
  -0.0007067942997098   10.8097514644094783   -0.0007067480905813
   0.0000000000000000    0.0000000000000000   10.8097515106201172
Tb Na Rb Cl
4 4 8 24
direct
   0.0000000000000000    0.0000000000000000    0.0000000000000000 Tb
   0.0000000000000000    0.5000000000000000    0.5000000000000000 Tb
   0.5000000000000000    0.0000000000000000    0.5000000000000000 Tb
   0.5000000000000000    0.5000000000000000    0.0000000000000000 Tb
   0.5000000000000000    0.0000000000000000    0.0000000000000000 Na
   0.0000000000000000    0.5000000000000000    0.0000000000000000 Na
   0.0000000000000000    0.0000000000000000    0.5000000000000000 Na
   0.5000000000000000    0.5000000000000000    0.5000000000000000 Na
   0.2500000000000000    0.2500000000000000    0.2500000000000000 Rb
   0.7500000000000000    0.7500000000000000    0.2500000000000000 Rb
   0.7500000000000000    0.2500000000000000    0.7500000000000000 Rb
   0.2500000000000000    0.7500000000000000    0.7500000000000000 Rb
   0.2500000000000000    0.2500000000000000    0.7500000000000000 Rb
   0.7500000000000000    0.7500000000000000    0.7500000000000000 Rb
   0.2500000000000000    0.7500000000000000    0.2500000000000000 Rb
   0.7500000000000000    0.2500000000000000    0.2500000000000000 Rb
   0.7526473999023438    0.0000000000000000    0.0000000000000000 Cl
   0.2473526000976562    0.0000000000000000    0.0000000000000000 Cl
   0.0000000000000000    0.7526473999023438    0.0000000000000000 Cl
   0.0000000000000000    0.2473526000976562    0.0000000000000000 Cl
   0.0000000000000000    0.0000000000000000    0.7526473999023438 Cl
   0.0000000000000000    0.0000000000000000    0.2473526000976562 Cl
   0.7526473999023438    0.5000000000000000    0.5000000000000000 Cl
   0.2473526000976562    0.5000000000000000    0.5000000000000000 Cl
   0.0000000000000000    0.2526473999023438    0.5000000000000000 Cl
   0.0000000000000000    0.7473526000976562    0.5000000000000000 Cl
   0.0000000000000000    0.5000000000000000    0.2526473999023438 Cl
   0.0000000000000000    0.5000000000000000    0.7473526000976562 Cl
   0.2526473999023438    0.0000000000000000    0.5000000000000000 Cl
   0.7473526000976562    0.0000000000000000    0.5000000000000000 Cl
   0.5000000000000000    0.7526473999023438    0.5000000000000000 Cl
   0.5000000000000000    0.2473526000976562    0.5000000000000000 Cl
   0.5000000000000000    0.0000000000000000    0.2526473999023438 Cl
   0.5000000000000000    0.0000000000000000    0.7473526000976562 Cl
   0.2526473999023438    0.5000000000000000    0.0000000000000000 Cl
   0.7473526000976562    0.5000000000000000    0.0000000000000000 Cl
   0.5000000000000000    0.2526473999023438    0.0000000000000000 Cl
   0.5000000000000000    0.7473526000976562    0.0000000000000000 Cl
   0.5000000000000000    0.5000000000000000    0.7526473999023438 Cl
   0.5000000000000000    0.5000000000000000    0.2473526000976562 Cl
