Pm4 Sb4 Au8
1.0
   7.0631470529275342    0.0000000000000000   -0.0004617928264971
  -0.0004618230197786    7.0631470378294132   -0.0004617928264971
   0.0000000000000000    0.0000000000000000    7.0631470680236816
Sb Pm Au
4 4 8
direct
   0.0000000000000000    0.0000000000000000    0.0000000000000000 Sb
   0.0000000000000000    0.5000000000000000    0.5000000000000000 Sb
   0.5000000000000000    0.0000000000000000    0.5000000000000000 Sb
   0.5000000000000000    0.5000000000000000    0.0000000000000000 Sb
   0.5000000000000000    0.0000000000000000    0.0000000000000000 Pm
   0.0000000000000000    0.5000000000000000    0.0000000000000000 Pm
   0.0000000000000000    0.0000000000000000    0.5000000000000000 Pm
   0.5000000000000000    0.5000000000000000    0.5000000000000000 Pm
   0.2500000000000000    0.2500000000000000    0.2500000000000000 Au
   0.7500000000000000    0.7500000000000000    0.2500000000000000 Au
   0.7500000000000000    0.2500000000000000    0.7500000000000000 Au
   0.2500000000000000    0.7500000000000000    0.7500000000000000 Au
   0.2500000000000000    0.2500000000000000    0.7500000000000000 Au
   0.7500000000000000    0.7500000000000000    0.7500000000000000 Au
   0.2500000000000000    0.7500000000000000    0.2500000000000000 Au
   0.7500000000000000    0.2500000000000000    0.2500000000000000 Au
