U4 Ga2 C4
1.0
   3.7226469437189578    0.0000000000000000   -0.0002433889088403
  -0.0002434048222747    3.7226469357614604   -0.0002433889088403
   0.0000000000000000    0.0000000000000000   12.1852455139160156
Ga C U
2 4 4
direct
   0.0000000000000000    0.0000000000000000    0.0000000000000000 Ga
   0.5000000000000000    0.5000000000000000    0.5000000000000000 Ga
   0.0000000000000000    0.0000000000000000    0.8339347839355469 C
   0.0000000000000000    0.0000000000000000    0.1660652160644531 C
   0.5000000000000000    0.5000000000000000    0.3339347839355469 C
   0.5000000000000000    0.5000000000000000    0.6660652160644531 C
   0.5000000000000000    0.5000000000000000    0.8551788330078125 U
   0.5000000000000000    0.5000000000000000    0.1448211669921875 U
   0.0000000000000000    0.0000000000000000    0.3551788330078125 U
   0.0000000000000000    0.0000000000000000    0.6448211669921875 U
