Sc1 Be3 P1
1.0
   3.9060501968822656    0.0000000000000000   -0.0002553799244645
  -1.9528035033536495    3.3828666272635846   -0.0002553799244645
   0.0000000000000000    0.0000000000000000    5.1636519432067871
Sc Be P
1 3 1
direct
   0.0000000000000000    0.0000000000000000    0.0070800781250000 Sc
   0.3333333432674408    0.6666666865348816    0.6657714843750000 Be
   0.3333333432674408    0.6666666865348816    0.2701416015625000 Be
   0.6666666865348816    0.3333333432674408    0.3004150390625000 Be
   0.6666666865348816    0.3333333432674408    0.7307739257812500 P
