Ca4 Mn2 W2 O12
1.0
   4.9045845875591985    0.0000000000000000   -3.4369393804317889
  -0.0006982035600735    5.5566505828387349   -0.0003632971789394
   0.0000000000000000    0.0000000000000000    9.8927478790283203
W Mn O Ca
2 2 12 4
direct
   0.5000000000000000    0.0000000000000000    0.0000000000000000 W
   0.5000000000000000    0.5000000000000000    0.5000000000000000 W
   0.0000000000000000    0.0000000000000000    0.5000000000000000 Mn
   0.0000000000000000    0.5000000000000000    0.0000000000000000 Mn
   0.6312255859375000    0.0325927734375000    0.2341003417968750 O
   0.3687744140625000    0.5325927734375000    0.2658996582031250 O
   0.3687744140625000    0.9674072265625000    0.7658996582031250 O
   0.6312255859375000    0.4674072265625000    0.7341003417968750 O
   0.1751708984375000    0.6837005615234375    0.4473876953125000 O
   0.8248291015625000    0.1837005615234375    0.0526123046875000 O
   0.8248291015625000    0.3162994384765625    0.5526123046875000 O
   0.1751708984375000    0.8162994384765625    0.9473876953125000 O
   0.2707824707031250    0.2852783203125000    0.9434356689453125 O
   0.7292175292968750    0.7852783203125000    0.5565643310546875 O
   0.7292175292968750    0.7147216796875000    0.0565643310546875 O
   0.2707824707031250    0.2147216796875000    0.4434356689453125 O
   0.7592468261718750    0.4510040283203125    0.2541198730468750 Ca
   0.2407531738281250    0.9510040283203125    0.2458801269531250 Ca
   0.2407531738281250    0.5489959716796875    0.7458801269531250 Ca
   0.7592468261718750    0.0489959716796875    0.7541198730468750 Ca
