W2 N4
1.0
   3.4213516639063770    0.0000000000000000   -0.0002236900412064
  -1.7104817344165313    2.9630895100118644   -0.0002236900412064
   0.0000000000000000    0.0000000000000000   14.3598470687866211
W N
2 4
direct
   0.3333333432674408    0.6666666865348816    0.2500000000000000 W
   0.6666666269302368    0.3333333134651184    0.7500000000000000 W
   0.6666666865348816    0.3333333432674408    0.3177185058593750 N
   0.3333333134651184    0.6666666269302368    0.8177185058593750 N
   0.3333333432674408    0.6666666865348816    0.6822814941406250 N
   0.6666666269302368    0.3333333134651184    0.1822814941406250 N
