U4 Cl4 O16
1.0
   6.5391497472237496    0.0000000000000000   -0.0004275335657081
  -0.0004275615190251    6.5391497332457202   -0.0004275335657081
   0.0000000000000000    0.0000000000000000   12.0411453247070312
U Cl O
4 4 16
direct
   0.0000000000000000    0.7500000000000000    0.1250000000000000 U
   0.5000000000000000    0.2500000000000000    0.6250000000000000 U
   0.5000000000000000    0.7500000000000000    0.3750000000000000 U
   0.0000000000000000    0.2500000000000000    0.8750000000000000 U
   0.5000000000000000    0.2500000000000000    0.1250000000000000 Cl
   0.0000000000000000    0.7500000000000000    0.6250000000000000 Cl
   0.0000000000000000    0.2500000000000000    0.3750000000000000 Cl
   0.5000000000000000    0.7500000000000000    0.8750000000000000 Cl
   0.0000000000000000    0.0305175781250000    0.7959594726562500 O
   0.5000000000000000    0.9694824218750000    0.2959594726562500 O
   0.2194824218750000    0.7500000000000000    0.0459594726562500 O
   0.2805175781250000    0.2500000000000000    0.5459594726562500 O
   0.5000000000000000    0.0305175781250000    0.7040405273437500 O
   0.0000000000000000    0.9694824218750000    0.2040405273437500 O
   0.2805175781250000    0.7500000000000000    0.4540405273437500 O
   0.2194824218750000    0.2500000000000000    0.9540405273437500 O
   0.7805175781250000    0.2500000000000000    0.9540405273437500 O
   0.7194824218750000    0.7500000000000000    0.4540405273437500 O
   0.7194824218750000    0.2500000000000000    0.5459594726562500 O
   0.7805175781250000    0.7500000000000000    0.0459594726562500 O
   0.5000000000000000    0.5305175781250000    0.2959594726562500 O
   0.0000000000000000    0.4694824218750000    0.7959594726562500 O
   0.0000000000000000    0.5305175781250000    0.2040405273437500 O
   0.5000000000000000    0.4694824218750000    0.7040405273437500 O
