Ce2 Ni4 P4
1.0
   4.0108480367766886    0.0000000000000000   -0.0002622316706242
  -0.0002622488160500    4.0108480282031351   -0.0002622316706242
   0.0000000000000000    0.0000000000000000    9.7879505157470703
Ce Ni P
2 4 4
direct
   0.0000000000000000    0.0000000000000000    0.0000000000000000 Ce
   0.5000000000000000    0.5000000000000000    0.5000000000000000 Ce
   0.0000000000000000    0.5000000000000000    0.2500000000000000 Ni
   0.5000000000000000    0.0000000000000000    0.2500000000000000 Ni
   0.0000000000000000    0.5000000000000000    0.7500000000000000 Ni
   0.5000000000000000    0.0000000000000000    0.7500000000000000 Ni
   0.0000000000000000    0.0000000000000000    0.6298828125000000 P
   0.0000000000000000    0.0000000000000000    0.3701171875000000 P
   0.5000000000000000    0.5000000000000000    0.1298828125000000 P
   0.5000000000000000    0.5000000000000000    0.8701171875000000 P
