Li4 Ce4 In4 Ni16
1.0
   7.3775482020053165    0.0000000000000000   -0.0004823485637908
  -0.0004823801010627    7.3775481862351340   -0.0004823485637908
   0.0000000000000000    0.0000000000000000    7.3775482177734375
Ce Li In Ni
4 4 4 16
direct
   0.0000000000000000    0.0000000000000000    0.0000000000000000 Ce
   0.0000000000000000    0.5000000000000000    0.5000000000000000 Ce
   0.5000000000000000    0.0000000000000000    0.5000000000000000 Ce
   0.5000000000000000    0.5000000000000000    0.0000000000000000 Ce
   0.5000000000000000    0.0000000000000000    0.0000000000000000 Li
   0.0000000000000000    0.5000000000000000    0.0000000000000000 Li
   0.0000000000000000    0.0000000000000000    0.5000000000000000 Li
   0.5000000000000000    0.5000000000000000    0.5000000000000000 Li
   0.2500000000000000    0.2500000000000000    0.7500000000000000 In
   0.7500000000000000    0.7500000000000000    0.7500000000000000 In
   0.7500000000000000    0.2500000000000000    0.2500000000000000 In
   0.2500000000000000    0.7500000000000000    0.2500000000000000 In
   0.3827972412109375    0.3827972412109375    0.6172027587890625 Ni
   0.6172027587890625    0.6172027587890625    0.6172027587890625 Ni
   0.6172027587890625    0.3827972412109375    0.3827972412109375 Ni
   0.3827972412109375    0.6172027587890625    0.3827972412109375 Ni
   0.3827972412109375    0.8827972412109375    0.1172027587890625 Ni
   0.6172027587890625    0.1172027587890625    0.1172027587890625 Ni
   0.6172027587890625    0.8827972412109375    0.8827972412109375 Ni
   0.3827972412109375    0.1172027587890625    0.8827972412109375 Ni
   0.8827972412109375    0.3827972412109375    0.1172027587890625 Ni
   0.1172027587890625    0.6172027587890625    0.1172027587890625 Ni
   0.1172027587890625    0.3827972412109375    0.8827972412109375 Ni
   0.8827972412109375    0.6172027587890625    0.8827972412109375 Ni
   0.8827972412109375    0.8827972412109375    0.6172027587890625 Ni
   0.1172027587890625    0.1172027587890625    0.6172027587890625 Ni
   0.1172027587890625    0.8827972412109375    0.3827972412109375 Ni
   0.8827972412109375    0.1172027587890625    0.3827972412109375 Ni
