Nd2 Ge6 Ir2
1.0
   4.3252534773888858    0.0000000000000000   -0.0002827876885010
  -0.0002828061779356    4.3252534681432619   -0.0002827876885010
   0.0000000000000000    0.0000000000000000   10.1678504943847656
Ge Nd Ir Ge
2 2 2 4
direct
   0.0000000000000000    0.0000000000000000    0.4243469238281250 Ge
   0.5000000000000000    0.5000000000000000    0.9243469238281250 Ge
   0.5000000000000000    0.5000000000000000    0.4965820312500000 Nd
   0.0000000000000000    0.0000000000000000    0.9965820312500000 Nd
   0.5000000000000000    0.5000000000000000    0.1580123901367188 Ir
   0.0000000000000000    0.0000000000000000    0.6580123901367188 Ir
   0.0000000000000000    0.5000000000000000    0.7586669921875000 Ge
   0.5000000000000000    0.0000000000000000    0.7586669921875000 Ge
   0.5000000000000000    0.0000000000000000    0.2586669921875000 Ge
   0.0000000000000000    0.5000000000000000    0.2586669921875000 Ge
