Fe8 Cl8 O4
1.0
   8.0718498057459875    0.0000000000000000   -0.0005277424225949
  -0.0002536835032175    3.8798496557315238   -0.0002536669177787
   0.0000000000000000    0.0000000000000000   13.0498485565185547
O Cl Fe
4 8 8
direct
   0.1130676269531250    0.2500000000000000    0.2507934570312500 O
   0.3869323730468750    0.7500000000000000    0.7507934570312500 O
   0.8869323730468750    0.7500000000000000    0.7492065429687500 O
   0.6130676269531250    0.2500000000000000    0.2492065429687500 O
   0.1029968261718750    0.2500000000000000    0.9071044921875000 Cl
   0.3970031738281250    0.7500000000000000    0.4071044921875000 Cl
   0.8970031738281250    0.7500000000000000    0.0928955078125000 Cl
   0.6029968261718750    0.2500000000000000    0.5928955078125000 Cl
   0.6597900390625000    0.2500000000000000    0.9006958007812500 Cl
   0.8402099609375000    0.7500000000000000    0.4006958007812500 Cl
   0.3402099609375000    0.7500000000000000    0.0993041992187500 Cl
   0.1597900390625000    0.2500000000000000    0.5993041992187500 Cl
   0.1303100585937500    0.2500000000000000    0.0980224609375000 Fe
   0.3696899414062500    0.7500000000000000    0.5980224609375000 Fe
   0.8696899414062500    0.7500000000000000    0.9019775390625000 Fe
   0.6303100585937500    0.2500000000000000    0.4019775390625000 Fe
   0.8819732666015625    0.2500000000000000    0.7035522460937500 Fe
   0.6180267333984375    0.7500000000000000    0.2035522460937500 Fe
   0.1180267333984375    0.7500000000000000    0.2964477539062500 Fe
   0.3819732666015625    0.2500000000000000    0.7964477539062500 Fe
