Ti2 P4 O12
1.0
   4.8223355069988134    0.0000000000000000   -0.0830167083231563
  -0.4576278345732004    5.7266513683320426   -0.4956682075586020
   0.0000000000000000    0.0000000000000000    8.0849523544311523
Ti O P
2 12 4
direct
   0.0000000000000000    0.0000000000000000    0.0000000000000000 Ti
   0.5000000000000000    0.5000000000000000    0.5000000000000000 Ti
   0.3618164062500000    0.1613464355468750    0.5576782226562500 O
   0.6381835937500000    0.8386535644531250    0.4423217773437500 O
   0.3691406250000000    0.4689102172851562    0.7550964355468750 O
   0.6308593750000000    0.5310897827148438    0.2449035644531250 O
   0.8322753906250000    0.3891601562500000    0.6304931640625000 O
   0.1677246093750000    0.6108398437500000    0.3695068359375000 O
   0.6341247558593750    0.0771484375000000    0.8455200195312500 O
   0.3658752441406250    0.9228515625000000    0.1544799804687500 O
   0.8911132812500000    0.7814941406250000    0.1602172851562500 O
   0.1088867187500000    0.2185058593750000    0.8397827148437500 O
   0.0109786987304688    0.3061523437500000    0.1419067382812500 O
   0.9890213012695312    0.6938476562500000    0.8580932617187500 O
   0.5550537109375000    0.8068847656250000    0.2539062500000000 P
   0.4449462890625000    0.1931152343750000    0.7460937500000000 P
   0.9683837890625000    0.5360107421875000    0.2285156250000000 P
   0.0316162109375000    0.4639892578125000    0.7714843750000000 P
