Rb2 Ge4 Te8
1.0
   7.5339348208599741    0.0000000000000000   -2.2482913143545136
  -3.2878145790079696    7.8250946803416479   -1.9129904572816379
   0.0000000000000000    0.0000000000000000    9.8403511047363281
Ge Rb Te
4 2 8
direct
   0.9024047851562500    0.4163055419921875    0.7680244445800781 Ge
   0.0975952148437500    0.5836944580078125    0.2319755554199219 Ge
   0.6398849487304688    0.6286010742187500    0.9644927978515625 Ge
   0.3601150512695312    0.3713989257812500    0.0355072021484375 Ge
   0.6436157226562500    0.8190307617187500    0.3947143554687500 Rb
   0.3563842773437500    0.1809692382812500    0.6052856445312500 Rb
   0.8561401367187500    0.3051452636718750    0.4788169860839844 Te
   0.1438598632812500    0.6948547363281250    0.5211830139160156 Te
   0.9949340820312500    0.8483886718750000    0.1720581054687500 Te
   0.0050659179687500    0.1516113281250000    0.8279418945312500 Te
   0.2884521484375000    0.6422119140625000    0.9843368530273438 Te
   0.7115478515625000    0.3577880859375000    0.0156631469726562 Te
   0.7361907958984375    0.6564025878906250    0.7269744873046875 Te
   0.2638092041015625    0.3435974121093750    0.2730255126953125 Te
