Tm8 Zn4 Hg4
1.0
   7.4561495621583660    0.0000000000000000   -0.0004874875682600
  -0.0004875194415342    7.4561495462201659   -0.0004874875682600
   0.0000000000000000    0.0000000000000000    7.4561495780944824
Zn Hg Tm
4 4 8
direct
   0.0000000000000000    0.0000000000000000    0.0000000000000000 Zn
   0.0000000000000000    0.5000000000000000    0.5000000000000000 Zn
   0.5000000000000000    0.0000000000000000    0.5000000000000000 Zn
   0.5000000000000000    0.5000000000000000    0.0000000000000000 Zn
   0.5000000000000000    0.0000000000000000    0.0000000000000000 Hg
   0.0000000000000000    0.5000000000000000    0.0000000000000000 Hg
   0.0000000000000000    0.0000000000000000    0.5000000000000000 Hg
   0.5000000000000000    0.5000000000000000    0.5000000000000000 Hg
   0.2500000000000000    0.2500000000000000    0.2500000000000000 Tm
   0.7500000000000000    0.7500000000000000    0.2500000000000000 Tm
   0.7500000000000000    0.2500000000000000    0.7500000000000000 Tm
   0.2500000000000000    0.7500000000000000    0.7500000000000000 Tm
   0.2500000000000000    0.2500000000000000    0.7500000000000000 Tm
   0.7500000000000000    0.7500000000000000    0.7500000000000000 Tm
   0.2500000000000000    0.7500000000000000    0.2500000000000000 Tm
   0.7500000000000000    0.2500000000000000    0.2500000000000000 Tm
