Si4 O16
1.0
   7.1286496963727402    0.0000000000000000   -0.0004660754289452
  -0.0004661059022349    7.1286496811346014   -0.0004660754289452
   0.0000000000000000    0.0000000000000000    5.9496498107910156
Si O
4 16
direct
   0.5000000000000000    0.2500000000000000    0.1250000000000000 Si
   0.0000000000000000    0.7500000000000000    0.6250000000000000 Si
   0.0000000000000000    0.2500000000000000    0.3750000000000000 Si
   0.5000000000000000    0.7500000000000000    0.8750000000000000 Si
   0.6752319335937500    0.2500000000000000    0.9765319824218750 O
   0.8247680664062500    0.7500000000000000    0.4765319824218750 O
   0.0000000000000000    0.4252319335937500    0.2265319824218750 O
   0.5000000000000000    0.5747680664062500    0.7265319824218750 O
   0.8247680664062500    0.2500000000000000    0.5234680175781250 O
   0.6752319335937500    0.7500000000000000    0.0234680175781250 O
   0.5000000000000000    0.4252319335937500    0.2734680175781250 O
   0.0000000000000000    0.5747680664062500    0.7734680175781250 O
   0.3247680664062500    0.7500000000000000    0.0234680175781250 O
   0.1752319335937500    0.2500000000000000    0.5234680175781250 O
   0.1752319335937500    0.7500000000000000    0.4765319824218750 O
   0.3247680664062500    0.2500000000000000    0.9765319824218750 O
   0.5000000000000000    0.9252319335937500    0.7265319824218750 O
   0.0000000000000000    0.0747680664062500    0.2265319824218750 O
   0.0000000000000000    0.9252319335937500    0.7734680175781250 O
   0.5000000000000000    0.0747680664062500    0.2734680175781250 O
