In10 Sn2 S12
1.0
   6.3295502527376470    0.0000000000000000   -0.0004138298239814
  -0.0004138568813102    6.3295502392076557   -0.0004138298239814
   0.0000000000000000    0.0000000000000000   16.8488540649414062
Sn In S In
2 2 12 8
direct
   0.0000000000000000    0.0000000000000000    0.0000000000000000 Sn
   0.5000000000000000    0.5000000000000000    0.5000000000000000 Sn
   0.5000000000000000    0.5000000000000000    0.0000000000000000 In
   0.0000000000000000    0.0000000000000000    0.5000000000000000 In
   0.5000000000000000    0.5000000000000000    0.7412719726562500 S
   0.5000000000000000    0.5000000000000000    0.2587280273437500 S
   0.0000000000000000    0.0000000000000000    0.2412719726562500 S
   0.0000000000000000    0.0000000000000000    0.7587280273437500 S
   0.3149414062500000    0.1764526367187500    0.0000000000000000 S
   0.6850585937500000    0.8235473632812500    0.0000000000000000 S
   0.8235473632812500    0.3149414062500000    0.0000000000000000 S
   0.1764526367187500    0.6850585937500000    0.0000000000000000 S
   0.8149414062500000    0.6764526367187500    0.5000000000000000 S
   0.1850585937500000    0.3235473632812500    0.5000000000000000 S
   0.3235473632812500    0.8149414062500000    0.5000000000000000 S
   0.6764526367187500    0.1850585937500000    0.5000000000000000 S
   0.3652343750000000    0.8635253906250000    0.0000000000000000 In
   0.6347656250000000    0.1364746093750000    0.0000000000000000 In
   0.1364746093750000    0.3652343750000000    0.0000000000000000 In
   0.8635253906250000    0.6347656250000000    0.0000000000000000 In
   0.8652343750000000    0.3635253906250000    0.5000000000000000 In
   0.1347656250000000    0.6364746093750000    0.5000000000000000 In
   0.6364746093750000    0.8652343750000000    0.5000000000000000 In
   0.3635253906250000    0.1347656250000000    0.5000000000000000 In
