U2 Al4 Co4 Ni4
1.0
   3.9322504913208967    0.0000000000000000   -0.0002570929155622
  -0.0009157905081205   14.0061511394658833   -0.0009157306351402
   0.0000000000000000    0.0000000000000000    3.3951473236083984
U Co Ni Al
2 4 4 4
direct
   0.0000000000000000    0.0000000000000000    0.0000000000000000 U
   0.5000000000000000    0.5000000000000000    0.0000000000000000 U
   0.0000000000000000    0.4009399414062500    0.0000000000000000 Co
   0.0000000000000000    0.5990600585937500    0.0000000000000000 Co
   0.5000000000000000    0.9009399414062500    0.0000000000000000 Co
   0.5000000000000000    0.0990600585937500    0.0000000000000000 Co
   0.0000000000000000    0.8054199218750000    0.0000000000000000 Ni
   0.0000000000000000    0.1945800781250000    0.0000000000000000 Ni
   0.5000000000000000    0.3054199218750000    0.0000000000000000 Ni
   0.5000000000000000    0.6945800781250000    0.0000000000000000 Ni
   0.0000000000000000    0.6820678710937500    0.5000000000000000 Al
   0.0000000000000000    0.3179321289062500    0.5000000000000000 Al
   0.5000000000000000    0.1820678710937500    0.5000000000000000 Al
   0.5000000000000000    0.8179321289062500    0.5000000000000000 Al
