Tb4 Gd4 Au8
1.0
   7.5740494566207328    0.0000000000000000   -0.0004951959346723
  -0.0004952283119405    7.5740494404305112   -0.0004951959346723
   0.0000000000000000    0.0000000000000000    7.5740494728088379
Gd Tb Au
4 4 8
direct
   0.0000000000000000    0.0000000000000000    0.0000000000000000 Gd
   0.0000000000000000    0.5000000000000000    0.5000000000000000 Gd
   0.5000000000000000    0.0000000000000000    0.5000000000000000 Gd
   0.5000000000000000    0.5000000000000000    0.0000000000000000 Gd
   0.5000000000000000    0.0000000000000000    0.0000000000000000 Tb
   0.0000000000000000    0.5000000000000000    0.0000000000000000 Tb
   0.0000000000000000    0.0000000000000000    0.5000000000000000 Tb
   0.5000000000000000    0.5000000000000000    0.5000000000000000 Tb
   0.2500000000000000    0.2500000000000000    0.2500000000000000 Au
   0.7500000000000000    0.7500000000000000    0.2500000000000000 Au
   0.7500000000000000    0.2500000000000000    0.7500000000000000 Au
   0.2500000000000000    0.7500000000000000    0.7500000000000000 Au
   0.2500000000000000    0.2500000000000000    0.7500000000000000 Au
   0.7500000000000000    0.7500000000000000    0.7500000000000000 Au
   0.2500000000000000    0.7500000000000000    0.2500000000000000 Au
   0.7500000000000000    0.2500000000000000    0.2500000000000000 Au
