Rb2 Fe2 H2 F6
1.0
   4.5475583662371353    0.0000000000000000   -1.4418059404447379
  -0.0004541812250897    5.0850505517343620   -0.0003324636821145
   0.0000000000000000    0.0000000000000000    8.1635494232177734
Fe H F Rb F
2 2 2 2 4
direct
   0.0000000000000000    0.0000000000000000    0.0000000000000000 Fe
   0.0000000000000000    0.5000000000000000    0.0000000000000000 Fe
   0.4569702148437500    0.2500000000000000    0.9238586425781250 H
   0.5430297851562500    0.7500000000000000    0.0761413574218750 H
   0.2770996093750000    0.2500000000000000    0.9257812500000000 F
   0.7229003906250000    0.7500000000000000    0.0742187500000000 F
   0.7185668945312500    0.2500000000000000    0.3675537109375000 Rb
   0.2814331054687500    0.7500000000000000    0.6324462890625000 Rb
   0.2125244140625000    0.9987792968750000    0.2163085937500000 F
   0.7874755859375000    0.4987792968750000    0.7836914062500000 F
   0.7874755859375000    0.0012207031250000    0.7836914062500000 F
   0.2125244140625000    0.5012207031250000    0.2163085937500000 F
