La2 Si4 Ag4
1.0
   4.2466478257014213    0.0000000000000000   -0.0002776484034487
  -0.0002776665568627    4.2466478166238240   -0.0002776484034487
   0.0000000000000000    0.0000000000000000   11.2289514541625977
La Ag Si
2 4 4
direct
   0.0000000000000000    0.0000000000000000    0.0000000000000000 La
   0.5000000000000000    0.5000000000000000    0.5000000000000000 La
   0.0000000000000000    0.5000000000000000    0.2500000000000000 Ag
   0.5000000000000000    0.0000000000000000    0.2500000000000000 Ag
   0.0000000000000000    0.5000000000000000    0.7500000000000000 Ag
   0.5000000000000000    0.0000000000000000    0.7500000000000000 Ag
   0.0000000000000000    0.0000000000000000    0.4011230468750000 Si
   0.0000000000000000    0.0000000000000000    0.5988769531250000 Si
   0.5000000000000000    0.5000000000000000    0.9011230468750000 Si
   0.5000000000000000    0.5000000000000000    0.0988769531250000 Si
