Na3 Pr3 Ti9 O24
1.0
   5.3077525979086078    0.0000000000000000   -0.0003470240752697
  -2.6535751835456458    4.5968224227042169   -0.0003470240752697
   0.0000000000000000    0.0000000000000000   18.4339523315429688
Na Pr O Ti O
3 3 6 9 18
direct
   0.0000000000000000    0.0000000000000000    0.0000000000000000 Na
   0.6666666865348816    0.3333333432674408    0.3333333432674408 Na
   0.3333333432674408    0.6666666865348816    0.6666666865348816 Na
   0.3333333432674408    0.6666666865348816    0.1666666716337204 Pr
   0.6666666865348816    0.3333333432674408    0.8333333134651184 Pr
   0.0000000000000000    0.0000000000000000    0.5000000000000000 Pr
   0.3333333432674408    0.6666666865348816    0.9401245117187500 O
   0.6666666865348816    0.3333333432674408    0.0598754882812500 O
   0.0000000000000000    0.0000000000000000    0.2734578847885132 O
   0.3333333730697632    0.6666666865348816    0.3932088613510132 O
   0.6666666865348816    0.3333333730697632    0.6067912578582764 O
   0.0000000000000000    0.0000000000000000    0.7265421748161316 O
   0.5000000000000000    0.5000000000000000    0.0000000000000000 Ti
   0.5000000000000000    0.0000000000000000    0.0000000000000000 Ti
   0.0000000000000000    0.5000000000000000    0.0000000000000000 Ti
   0.1666667461395264    0.8333333730697632    0.3333333432674408 Ti
   0.1666666865348816    0.3333333432674408    0.3333333432674408 Ti
   0.6666666865348816    0.8333333730697632    0.3333333432674408 Ti
   0.8333333730697632    0.1666667461395264    0.6666666865348816 Ti
   0.8333333730697632    0.6666666865348816    0.6666666865348816 Ti
   0.3333333432674408    0.1666666865348816    0.6666666865348816 Ti
   0.8453330993652344    0.6906661987304688    0.4031982421875000 O
   0.3093338012695312    0.1546669006347656    0.4031982421875000 O
   0.8453330993652344    0.1546669006347656    0.4031982421875000 O
   0.6906661987304688    0.8453330993652344    0.5968017578125000 O
   0.1546669006347656    0.3093338012695312    0.5968017578125000 O
   0.1546669006347656    0.8453330993652344    0.5968017578125000 O
   0.5119998455047607    0.0239995718002319    0.7365316152572632 O
   0.9760004878044128    0.4880002439022064    0.7365316152572632 O
   0.5119997859001160    0.4880002737045288    0.7365316152572632 O
   0.3573329448699951    0.1786664724349976    0.9301351308822632 O
   0.8213335871696472    0.6426671743392944    0.9301351308822632 O
   0.8213335871696472    0.1786664426326752    0.9301351308822632 O
   0.1786664724349976    0.3573329448699951    0.0698649883270264 O
   0.6426671743392944    0.8213335871696472    0.0698649883270264 O
   0.1786664426326752    0.8213335871696472    0.0698649883270264 O
   0.0239995718002319    0.5119998455047607    0.2634684443473816 O
   0.4880002439022064    0.9760004878044128    0.2634684443473816 O
   0.4880002737045288    0.5119997859001160    0.2634684443473816 O
