Gd3 Ho3 S12
1.0
   4.2859506515451535    0.0000000000000000   -0.0002802180459748
  -2.1427321784596374    3.7118825141528853   -0.0002802180459748
   0.0000000000000000    0.0000000000000000   27.6170501708984375
Ho Gd S
3 3 12
direct
   0.0000000000000000    0.0000000000000000    0.0000000000000000 Ho
   0.6666666865348816    0.3333333432674408    0.3333333432674408 Ho
   0.3333333432674408    0.6666666865348816    0.6666666865348816 Ho
   0.3333333432674408    0.6666666865348816    0.1666666716337204 Gd
   0.6666666865348816    0.3333333432674408    0.8333333134651184 Gd
   0.0000000000000000    0.0000000000000000    0.5000000000000000 Gd
   0.0000000000000000    0.0000000000000000    0.2865066528320312 S
   0.0000000000000000    0.0000000000000000    0.7134933471679688 S
   0.6666666865348816    0.3333333432674408    0.6198400259017944 S
   0.6666666865348816    0.3333333432674408    0.0468266904354095 S
   0.3333333432674408    0.6666666865348816    0.9531733393669128 S
   0.3333333432674408    0.6666666865348816    0.3801600337028503 S
   0.0000000000000000    0.0000000000000000    0.1214599609375000 S
   0.0000000000000000    0.0000000000000000    0.8785400390625000 S
   0.6666666865348816    0.3333333432674408    0.4547933042049408 S
   0.6666666865348816    0.3333333432674408    0.2118733823299408 S
   0.3333333432674408    0.6666666865348816    0.7881266474723816 S
   0.3333333432674408    0.6666666865348816    0.5452067255973816 S
