Li2 Mg8
1.0
   5.4780492665509781    0.0000000000000000   -0.0003581581744702
  -0.0003316289926647    5.0719523213049564   -0.0003316073112693
   0.0000000000000000    0.0000000000000000    7.6133522987365723
Li Mg
2 8
direct
   0.0000000000000000    0.5000000000000000    0.4060058593750000 Li
   0.5000000000000000    0.0000000000000000    0.9060058593750000 Li
   0.2567138671875000    0.5000000000000000    0.7195434570312500 Mg
   0.7432861328125000    0.5000000000000000    0.7195434570312500 Mg
   0.7567138671875000    0.0000000000000000    0.2195434570312500 Mg
   0.2432861328125000    0.0000000000000000    0.2195434570312500 Mg
   0.2525634765625000    0.5000000000000000    0.0744934082031250 Mg
   0.7474365234375000    0.5000000000000000    0.0744934082031250 Mg
   0.7525634765625000    0.0000000000000000    0.5744934082031250 Mg
   0.2474365234375000    0.0000000000000000    0.5744934082031250 Mg
