Cs2 Ti2 Cl6
1.0
   7.7050518824882008    0.0000000000000000   -0.0005037609525129
  -3.8520888240643658    6.6730230183443382   -0.0005037609525129
   0.0000000000000000    0.0000000000000000    6.9845495223999023
Ti Cs Cl
2 2 6
direct
   0.0000000000000000    0.0000000000000000    0.0000000000000000 Ti
   0.0000000000000000    0.0000000000000000    0.5000000000000000 Ti
   0.6666666865348816    0.3333333432674408    0.2500000000000000 Cs
   0.3333333134651184    0.6666666269302368    0.7500000000000000 Cs
   0.8732299804687500    0.1267700195312500    0.2500000000000000 Cl
   0.8732299804687500    0.7464599609375000    0.2500000000000000 Cl
   0.2535400390625000    0.1267700195312500    0.2500000000000000 Cl
   0.1267700195312500    0.8732299804687500    0.7500000000000000 Cl
   0.1267700195312500    0.2535400390625000    0.7500000000000000 Cl
   0.7464599609375000    0.8732299804687500    0.7500000000000000 Cl
