Y2 Fe20 Mo4
1.0
   4.7313504117931462    0.0000000000000000   -0.0003093385517019
  -0.0005406251698975    8.2683515195242041   -0.0005405898246522
   0.0000000000000000    0.0000000000000000    8.5696506500244141
Y Fe Mo Fe
2 8 4 12
direct
   0.0000000000000000    0.0000000000000000    0.0000000000000000 Y
   0.5000000000000000    0.5000000000000000    0.5000000000000000 Y
   0.0000000000000000    0.3646545410156250    0.0000000000000000 Fe
   0.0000000000000000    0.6353454589843750    0.0000000000000000 Fe
   0.5000000000000000    0.8646545410156250    0.5000000000000000 Fe
   0.5000000000000000    0.1353454589843750    0.5000000000000000 Fe
   0.0000000000000000    0.7179260253906250    0.5000000000000000 Fe
   0.0000000000000000    0.2820739746093750    0.5000000000000000 Fe
   0.5000000000000000    0.2179260253906250    0.0000000000000000 Fe
   0.5000000000000000    0.7820739746093750    0.0000000000000000 Fe
   0.0000000000000000    0.0000000000000000    0.6410789489746094 Mo
   0.0000000000000000    0.0000000000000000    0.3589210510253906 Mo
   0.5000000000000000    0.5000000000000000    0.1410789489746094 Mo
   0.5000000000000000    0.5000000000000000    0.8589210510253906 Mo
   0.0000000000000000    0.5000000000000000    0.7251281738281250 Fe
   0.0000000000000000    0.5000000000000000    0.2748718261718750 Fe
   0.5000000000000000    0.0000000000000000    0.2251281738281250 Fe
   0.5000000000000000    0.0000000000000000    0.7748718261718750 Fe
   0.2500000000000000    0.2500000000000000    0.2500000000000000 Fe
   0.7500000000000000    0.7500000000000000    0.2500000000000000 Fe
   0.7500000000000000    0.2500000000000000    0.7500000000000000 Fe
   0.2500000000000000    0.7500000000000000    0.7500000000000000 Fe
   0.7500000000000000    0.7500000000000000    0.7500000000000000 Fe
   0.2500000000000000    0.2500000000000000    0.7500000000000000 Fe
   0.2500000000000000    0.7500000000000000    0.2500000000000000 Fe
   0.7500000000000000    0.2500000000000000    0.2500000000000000 Fe
