Cs4 Nd4 Cu4 Se12
1.0
   4.0763511570590509    0.0000000000000000   -0.0002665143042481
  -0.0010399890173493   15.9056500708598705   -0.0010399210244608
   0.0000000000000000    0.0000000000000000   10.0892496109008789
Nd Cu Se Cs Se
4 4 4 4 8
direct
   0.0000000000000000    0.0000000000000000    0.0000000000000000 Nd
   0.0000000000000000    0.0000000000000000    0.5000000000000000 Nd
   0.5000000000000000    0.5000000000000000    0.0000000000000000 Nd
   0.5000000000000000    0.5000000000000000    0.5000000000000000 Nd
   0.0000000000000000    0.4697418212890625    0.2500000000000000 Cu
   0.0000000000000000    0.5302581787109375    0.7500000000000000 Cu
   0.5000000000000000    0.9697418212890625    0.2500000000000000 Cu
   0.5000000000000000    0.0302581787109375    0.7500000000000000 Cu
   0.0000000000000000    0.0678710937500000    0.2500000000000000 Se
   0.0000000000000000    0.9321289062500000    0.7500000000000000 Se
   0.5000000000000000    0.5678710937500000    0.2500000000000000 Se
   0.5000000000000000    0.4321289062500000    0.7500000000000000 Se
   0.0000000000000000    0.7456665039062500    0.2500000000000000 Cs
   0.0000000000000000    0.2543334960937500    0.7500000000000000 Cs
   0.5000000000000000    0.2456665039062500    0.2500000000000000 Cs
   0.5000000000000000    0.7543334960937500    0.7500000000000000 Cs
   0.5000000000000000    0.8783035278320312    0.0582580566406250 Se
   0.5000000000000000    0.1216964721679688    0.5582580566406250 Se
   0.5000000000000000    0.8783035278320312    0.4417419433593750 Se
   0.5000000000000000    0.1216964721679688    0.9417419433593750 Se
   0.0000000000000000    0.3783035278320312    0.0582580566406250 Se
   0.0000000000000000    0.6216964721679688    0.5582580566406250 Se
   0.0000000000000000    0.3783035278320312    0.4417419433593750 Se
   0.0000000000000000    0.6216964721679688    0.9417419433593750 Se
