Yb2 Pd8 Pt6
1.0
   6.8666496130093755    0.0000000000000000   -0.0004489457050229
  -0.0003110718802026    4.7575506960620784   -0.0003110515427997
   0.0000000000000000    0.0000000000000000    7.8360500335693359
Yb Pt Pd
2 6 8
direct
   0.0000000000000000    0.5000000000000000    0.5123291015625000 Yb
   0.0000000000000000    0.0000000000000000    0.0123291015625000 Yb
   0.5000000000000000    0.0000000000000000    0.0212402343750000 Pt
   0.5000000000000000    0.5000000000000000    0.5212402343750000 Pt
   0.2349548339843750    0.0000000000000000    0.5328369140625000 Pt
   0.7650451660156250    0.0000000000000000    0.5328369140625000 Pt
   0.2349548339843750    0.5000000000000000    0.0328369140625000 Pt
   0.7650451660156250    0.5000000000000000    0.0328369140625000 Pt
   0.6959152221679688    0.7448883056640625    0.7722015380859375 Pd
   0.3040847778320312    0.2551116943359375    0.7722015380859375 Pd
   0.6959152221679688    0.2551116943359375    0.7722015380859375 Pd
   0.3040847778320312    0.7448883056640625    0.7722015380859375 Pd
   0.6959152221679688    0.2448883056640625    0.2722015380859375 Pd
   0.3040847778320312    0.7551116943359375    0.2722015380859375 Pd
   0.6959152221679688    0.7551116943359375    0.2722015380859375 Pd
   0.3040847778320312    0.2448883056640625    0.2722015380859375 Pd
