Sr4 Zn2 Ir2 O12
1.0
   5.5304503322653966    0.0000000000000000   -0.0003615841878416
  -0.0003616078292075    5.5304503204435544   -0.0003615841878416
   0.0000000000000000    0.0000000000000000    8.0325517654418945
Ir Zn Sr O
2 2 4 12
direct
   0.0000000000000000    0.0000000000000000    0.0000000000000000 Ir
   0.5000000000000000    0.5000000000000000    0.5000000000000000 Ir
   0.5000000000000000    0.5000000000000000    0.0000000000000000 Zn
   0.0000000000000000    0.0000000000000000    0.5000000000000000 Zn
   0.5000000000000000    0.0000000000000000    0.2500000000000000 Sr
   0.0000000000000000    0.5000000000000000    0.2500000000000000 Sr
   0.5000000000000000    0.0000000000000000    0.7500000000000000 Sr
   0.0000000000000000    0.5000000000000000    0.7500000000000000 Sr
   0.0000000000000000    0.0000000000000000    0.7583312988281250 O
   0.0000000000000000    0.0000000000000000    0.2416687011718750 O
   0.5000000000000000    0.5000000000000000    0.2583312988281250 O
   0.5000000000000000    0.5000000000000000    0.7416687011718750 O
   0.8077468872070312    0.7070007324218750    0.0000000000000000 O
   0.1922531127929688    0.2929992675781250    0.0000000000000000 O
   0.2929992675781250    0.8077468872070312    0.0000000000000000 O
   0.7070007324218750    0.1922531127929688    0.0000000000000000 O
   0.3077468872070312    0.2070007324218750    0.5000000000000000 O
   0.6922531127929688    0.7929992675781250    0.5000000000000000 O
   0.7929992675781250    0.3077468872070312    0.5000000000000000 O
   0.2070007324218750    0.6922531127929688    0.5000000000000000 O
