Eu4 Ge4 Ir4
1.0
   4.0763511570590509    0.0000000000000000   -0.0002665143042481
  -0.0002665317296842    4.0763511483454788   -0.0002665143042481
   0.0000000000000000    0.0000000000000000   14.1764478683471680
Ge Eu Ir
4 4 4
direct
   0.5000000000000000    0.5000000000000000    0.0904235839843750 Ge
   0.0000000000000000    0.0000000000000000    0.5904235839843750 Ge
   0.5000000000000000    0.0000000000000000    0.3404235839843750 Ge
   0.0000000000000000    0.5000000000000000    0.8404235839843750 Ge
   0.0000000000000000    0.5000000000000000    0.2617187500000000 Eu
   0.5000000000000000    0.0000000000000000    0.7617187500000000 Eu
   0.5000000000000000    0.5000000000000000    0.5117187500000000 Eu
   0.0000000000000000    0.0000000000000000    0.0117187500000000 Eu
   0.5000000000000000    0.0000000000000000    0.1759681701660156 Ir
   0.0000000000000000    0.5000000000000000    0.6759681701660156 Ir
   0.0000000000000000    0.0000000000000000    0.4259681701660156 Ir
   0.5000000000000000    0.5000000000000000    0.9259681701660156 Ir
