Sn1 Te6 W1
1.0
   5.5042495609896092    0.0000000000000000   -0.0003598711655680
  -0.0003598946949317    5.5042495492237737   -0.0003598711655680
   0.0000000000000000    0.0000000000000000    7.9277496337890625
Sn W Te
1 1 6
direct
   0.5000000000000000    0.5000000000000000    0.5000000000000000 Sn
   0.0000000000000000    0.0000000000000000    0.5000000000000000 W
   0.0000000000000000    0.5000000000000000    0.3778381347656250 Te
   0.5000000000000000    0.0000000000000000    0.6221618652343750 Te
   0.5000000000000000    0.7486572265625000    0.1584472656250000 Te
   0.5000000000000000    0.2513427734375000    0.1584472656250000 Te
   0.7486572265625000    0.5000000000000000    0.8415527343750000 Te
   0.2513427734375000    0.5000000000000000    0.8415527343750000 Te
