Mn4 Tl4 O16
1.0
   4.3383512404224147    0.0000000000000000   -0.0002836440281704
  -0.0006725325495327   10.2857503451285375   -0.0006724885803851
   0.0000000000000000    0.0000000000000000    7.7050518989562988
Tl Mn O
4 4 16
direct
   0.0000000000000000    0.0000000000000000    0.0000000000000000 Tl
   0.0000000000000000    0.0000000000000000    0.5000000000000000 Tl
   0.5000000000000000    0.5000000000000000    0.0000000000000000 Tl
   0.5000000000000000    0.5000000000000000    0.5000000000000000 Tl
   0.0000000000000000    0.2946166992187500    0.2500000000000000 Mn
   0.0000000000000000    0.7053833007812500    0.7500000000000000 Mn
   0.5000000000000000    0.7946166992187500    0.2500000000000000 Mn
   0.5000000000000000    0.2053833007812500    0.7500000000000000 Mn
   0.0000000000000000    0.8158187866210938    0.5777282714843750 O
   0.0000000000000000    0.1841812133789062    0.0777282714843750 O
   0.0000000000000000    0.8158187866210938    0.9222717285156250 O
   0.0000000000000000    0.1841812133789062    0.4222717285156250 O
   0.5000000000000000    0.3158187866210938    0.5777282714843750 O
   0.5000000000000000    0.6841812133789062    0.0777282714843750 O
   0.5000000000000000    0.3158187866210938    0.9222717285156250 O
   0.5000000000000000    0.6841812133789062    0.4222717285156250 O
   0.2461242675781250    0.4336853027343750    0.2500000000000000 O
   0.7538757324218750    0.5663146972656250    0.7500000000000000 O
   0.7538757324218750    0.4336853027343750    0.2500000000000000 O
   0.2461242675781250    0.5663146972656250    0.7500000000000000 O
   0.7461242675781250    0.9336853027343750    0.2500000000000000 O
   0.2538757324218750    0.0663146972656250    0.7500000000000000 O
   0.2538757324218750    0.9336853027343750    0.2500000000000000 O
   0.7461242675781250    0.0663146972656250    0.7500000000000000 O
