Te4 Mo4 S5
1.0
   4.3252534773888858    0.0000000000000000   -0.0002827876885010
  -2.1623813616832939    3.7459210469935633   -0.0002827876885010
   0.0000000000000000    0.0000000000000000   44.5160446166992188
S Mo Te S Mo Te
2 3 3 3 1 1
direct
   0.3333333432674408    0.6666666865348816    0.2304077148437500 S
   0.3333333432674408    0.6666666865348816    0.2897949218750000 S
   0.3333333432674408    0.6666666865348816    0.7200927734375000 Mo
   0.3333333432674408    0.6666666865348816    0.4456787109375000 Mo
   0.3333333432674408    0.6666666865348816    0.0808715820312500 Mo
   0.3333333432674408    0.6666666865348816    0.8515625000000000 Te
   0.3333333432674408    0.6666666865348816    0.5633544921875000 Te
   0.3333333432674408    0.6666666865348816    0.9516601562500000 Te
   0.6666666865348816    0.3333333432674408    0.6874542236328125 S
   0.6666666865348816    0.3333333432674408    0.0529251098632812 S
   0.6666666865348816    0.3333333432674408    0.4371337890625000 S
   0.6666666865348816    0.3333333432674408    0.2585449218750000 Mo
   0.6666666865348816    0.3333333432674408    0.1241455078125000 Te
