Dy2 Th2 Mn8 Ge8
1.0
   4.4562516117219388    0.0000000000000000   -0.0002913524257585
  -0.0004455488209508    6.8142485327288789   -0.0004455196916515
   0.0000000000000000    0.0000000000000000   14.4646492004394531
Th Dy Ge Mn
2 2 8 8
direct
   0.0000000000000000    0.0000000000000000    0.0000000000000000 Th
   0.5000000000000000    0.5000000000000000    0.5000000000000000 Th
   0.0000000000000000    0.5000000000000000    0.5000000000000000 Dy
   0.5000000000000000    0.0000000000000000    0.0000000000000000 Dy
   0.0000000000000000    0.0000000000000000    0.5809326171875000 Ge
   0.0000000000000000    0.0000000000000000    0.4190673828125000 Ge
   0.5000000000000000    0.5000000000000000    0.0809326171875000 Ge
   0.5000000000000000    0.5000000000000000    0.9190673828125000 Ge
   0.0000000000000000    0.5000000000000000    0.7944946289062500 Ge
   0.0000000000000000    0.5000000000000000    0.2055053710937500 Ge
   0.5000000000000000    0.0000000000000000    0.2944946289062500 Ge
   0.5000000000000000    0.0000000000000000    0.7055053710937500 Ge
   0.0000000000000000    0.2272949218750000    0.6991577148437500 Mn
   0.0000000000000000    0.7727050781250000    0.6991577148437500 Mn
   0.0000000000000000    0.2272949218750000    0.3008422851562500 Mn
   0.0000000000000000    0.7727050781250000    0.3008422851562500 Mn
   0.5000000000000000    0.7272949218750000    0.1991577148437500 Mn
   0.5000000000000000    0.2727050781250000    0.1991577148437500 Mn
   0.5000000000000000    0.7272949218750000    0.8008422851562500 Mn
   0.5000000000000000    0.2727050781250000    0.8008422851562500 Mn
