Ba2 Cl8
1.0
   6.0020503869520203    0.0000000000000000   -0.0003924176846665
  -0.0003924433420109    6.0020503741220903   -0.0003924176846665
   0.0000000000000000    0.0000000000000000    8.3731536865234375
Ba Cl
2 8
direct
   0.7500000000000000    0.2500000000000000    0.2500000000000000 Ba
   0.2500000000000000    0.7500000000000000    0.7500000000000000 Ba
   0.0349960327148438    0.2500000000000000    0.8942871093750000 Cl
   0.4650039672851562    0.2500000000000000    0.8942871093750000 Cl
   0.2500000000000000    0.0349960327148438    0.3942871093750000 Cl
   0.2500000000000000    0.4650039672851562    0.3942871093750000 Cl
   0.9650039672851562    0.7500000000000000    0.1057128906250000 Cl
   0.5349960327148438    0.7500000000000000    0.1057128906250000 Cl
   0.7500000000000000    0.5349960327148438    0.6057128906250000 Cl
   0.7500000000000000    0.9650039672851562    0.6057128906250000 Cl
