Zr8 Mn2 Ge8
1.0
  10.2857503671152664    0.0000000000000000   -0.0006724885803851
  -0.0006725325495327   10.2857503451285375   -0.0006724885803851
   0.0000000000000000    0.0000000000000000    3.2379484176635742
Mn Ge Zr
2 8 8
direct
   0.0000000000000000    0.0000000000000000    0.0000000000000000 Mn
   0.5000000000000000    0.5000000000000000    0.5000000000000000 Mn
   0.3972473144531250    0.6730041503906250    0.0000000000000000 Ge
   0.6027526855468750    0.3269958496093750    0.0000000000000000 Ge
   0.3269958496093750    0.3972473144531250    0.0000000000000000 Ge
   0.6730041503906250    0.6027526855468750    0.0000000000000000 Ge
   0.8972473144531250    0.1730041503906250    0.5000000000000000 Ge
   0.1027526855468750    0.8269958496093750    0.5000000000000000 Ge
   0.8269958496093750    0.8972473144531250    0.5000000000000000 Ge
   0.1730041503906250    0.1027526855468750    0.5000000000000000 Ge
   0.9234008789062500    0.6926269531250000    0.0000000000000000 Zr
   0.0765991210937500    0.3073730468750000    0.0000000000000000 Zr
   0.3073730468750000    0.9234008789062500    0.0000000000000000 Zr
   0.6926269531250000    0.0765991210937500    0.0000000000000000 Zr
   0.4234008789062500    0.1926269531250000    0.5000000000000000 Zr
   0.5765991210937500    0.8073730468750000    0.5000000000000000 Zr
   0.8073730468750000    0.4234008789062500    0.5000000000000000 Zr
   0.1926269531250000    0.5765991210937500    0.5000000000000000 Zr
