Ge2 Te6 As3
1.0
   4.2859506515451535    0.0000000000000000   -0.0002802180459748
  -2.1427321784596374    3.7118825141528853   -0.0002802180459748
   0.0000000000000000    0.0000000000000000   24.8660488128662109
As Ge As Te
1 2 2 6
direct
   0.0000000000000000    0.0000000000000000    0.5000000000000000 As
   0.0000000000000000    0.0000000000000000    0.1469001770019531 Ge
   0.0000000000000000    0.0000000000000000    0.8530998229980469 Ge
   0.6666666865348816    0.3333333432674408    0.5650024414062500 As
   0.3333333432674408    0.6666666865348816    0.4349975585937500 As
   0.6666666865348816    0.3333333432674408    0.7941894531250000 Te
   0.3333333432674408    0.6666666865348816    0.2058105468750000 Te
   0.6666666865348816    0.3333333432674408    0.0759887695312500 Te
   0.3333333432674408    0.6666666865348816    0.9240112304687500 Te
   0.6666666865348816    0.3333333432674408    0.3580627441406250 Te
   0.3333333432674408    0.6666666865348816    0.6419372558593750 Te
