Sr6 Ge4
1.0
   4.0632486256539497    0.0000000000000000   -0.0002656576528197
  -0.0003975824330588    6.0806479194098726   -0.0003975564397285
   0.0000000000000000    0.0000000000000000   12.8140487670898438
Sr Ge Sr
2 4 4
direct
   0.0000000000000000    0.0000000000000000    0.0000000000000000 Sr
   0.5000000000000000    0.5000000000000000    0.5000000000000000 Sr
   0.0000000000000000    0.5000000000000000    0.0956878662109375 Ge
   0.0000000000000000    0.5000000000000000    0.9043121337890625 Ge
   0.5000000000000000    0.0000000000000000    0.5956878662109375 Ge
   0.5000000000000000    0.0000000000000000    0.4043121337890625 Ge
   0.0000000000000000    0.5000000000000000    0.6745605468750000 Sr
   0.0000000000000000    0.5000000000000000    0.3254394531250000 Sr
   0.5000000000000000    0.0000000000000000    0.1745605468750000 Sr
   0.5000000000000000    0.0000000000000000    0.8254394531250000 Sr
