Ba4 Sr4 Sm4 Ta4 O24
1.0
   8.6482524686986046    0.0000000000000000   -0.0005654279773385
  -0.0005654649465703    8.6482524502121763   -0.0005654279773385
   0.0000000000000000    0.0000000000000000    8.6482524871826172
Ta Sm Ba Sr O
4 4 4 4 24
direct
   0.0000000000000000    0.0000000000000000    0.0000000000000000 Ta
   0.0000000000000000    0.5000000000000000    0.5000000000000000 Ta
   0.5000000000000000    0.0000000000000000    0.5000000000000000 Ta
   0.5000000000000000    0.5000000000000000    0.0000000000000000 Ta
   0.5000000000000000    0.0000000000000000    0.0000000000000000 Sm
   0.0000000000000000    0.5000000000000000    0.0000000000000000 Sm
   0.0000000000000000    0.0000000000000000    0.5000000000000000 Sm
   0.5000000000000000    0.5000000000000000    0.5000000000000000 Sm
   0.2500000000000000    0.2500000000000000    0.2500000000000000 Ba
   0.7500000000000000    0.7500000000000000    0.2500000000000000 Ba
   0.7500000000000000    0.2500000000000000    0.7500000000000000 Ba
   0.2500000000000000    0.7500000000000000    0.7500000000000000 Ba
   0.2500000000000000    0.2500000000000000    0.7500000000000000 Sr
   0.7500000000000000    0.7500000000000000    0.7500000000000000 Sr
   0.7500000000000000    0.2500000000000000    0.2500000000000000 Sr
   0.2500000000000000    0.7500000000000000    0.2500000000000000 Sr
   0.7676391601562500    0.0000000000000000    0.0000000000000000 O
   0.2323608398437500    0.0000000000000000    0.0000000000000000 O
   0.0000000000000000    0.7676391601562500    0.0000000000000000 O
   0.0000000000000000    0.2323608398437500    0.0000000000000000 O
   0.0000000000000000    0.0000000000000000    0.7676391601562500 O
   0.0000000000000000    0.0000000000000000    0.2323608398437500 O
   0.7676391601562500    0.5000000000000000    0.5000000000000000 O
   0.2323608398437500    0.5000000000000000    0.5000000000000000 O
   0.0000000000000000    0.2676391601562500    0.5000000000000000 O
   0.0000000000000000    0.7323608398437500    0.5000000000000000 O
   0.0000000000000000    0.5000000000000000    0.2676391601562500 O
   0.0000000000000000    0.5000000000000000    0.7323608398437500 O
   0.2676391601562500    0.0000000000000000    0.5000000000000000 O
   0.7323608398437500    0.0000000000000000    0.5000000000000000 O
   0.5000000000000000    0.7676391601562500    0.5000000000000000 O
   0.5000000000000000    0.2323608398437500    0.5000000000000000 O
   0.5000000000000000    0.0000000000000000    0.2676391601562500 O
   0.5000000000000000    0.0000000000000000    0.7323608398437500 O
   0.2676391601562500    0.5000000000000000    0.0000000000000000 O
   0.7323608398437500    0.5000000000000000    0.0000000000000000 O
   0.5000000000000000    0.2676391601562500    0.0000000000000000 O
   0.5000000000000000    0.7323608398437500    0.0000000000000000 O
   0.5000000000000000    0.5000000000000000    0.7676391601562500 O
   0.5000000000000000    0.5000000000000000    0.2323608398437500 O
