Pm4 Y4 Mg8
1.0
   7.5609512167500466    0.0000000000000000   -0.0004943395638270
  -0.0004943718851034    7.5609512005878239   -0.0004943395638270
   0.0000000000000000    0.0000000000000000    7.5609512329101562
Y Pm Mg
4 4 8
direct
   0.0000000000000000    0.0000000000000000    0.0000000000000000 Y
   0.0000000000000000    0.5000000000000000    0.5000000000000000 Y
   0.5000000000000000    0.0000000000000000    0.5000000000000000 Y
   0.5000000000000000    0.5000000000000000    0.0000000000000000 Y
   0.5000000000000000    0.0000000000000000    0.0000000000000000 Pm
   0.0000000000000000    0.5000000000000000    0.0000000000000000 Pm
   0.0000000000000000    0.0000000000000000    0.5000000000000000 Pm
   0.5000000000000000    0.5000000000000000    0.5000000000000000 Pm
   0.2500000000000000    0.2500000000000000    0.2500000000000000 Mg
   0.7500000000000000    0.7500000000000000    0.2500000000000000 Mg
   0.7500000000000000    0.2500000000000000    0.7500000000000000 Mg
   0.2500000000000000    0.7500000000000000    0.7500000000000000 Mg
   0.2500000000000000    0.2500000000000000    0.7500000000000000 Mg
   0.7500000000000000    0.7500000000000000    0.7500000000000000 Mg
   0.2500000000000000    0.7500000000000000    0.2500000000000000 Mg
   0.7500000000000000    0.2500000000000000    0.2500000000000000 Mg
