Al6 In4 Se20
1.0
   9.1188015764957768    0.0000000000000000   -3.6636547394585031
  -0.0013497188321977   13.9537505152502224   -0.0009123046529447
   0.0000000000000000    0.0000000000000000    7.9670486450195312
Al Se In
6 20 4
direct
   0.5000000000000000    0.5639495849609375    0.5000000000000000 Al
   0.0000000000000000    0.0639495849609375    0.5000000000000000 Al
   0.0000000000000000    0.6227722167968750    0.5000000000000000 Al
   0.5000000000000000    0.1227722167968750    0.5000000000000000 Al
   0.0000000000000000    0.3558349609375000    0.5000000000000000 Al
   0.5000000000000000    0.8558349609375000    0.5000000000000000 Al
   0.8999938964843750    0.6923828125000000    0.2026977539062500 Se
   0.1000061035156250    0.6923828125000000    0.7973022460937500 Se
   0.3999938964843750    0.1923828125000000    0.2026977539062500 Se
   0.6000061035156250    0.1923828125000000    0.7973022460937500 Se
   0.6782836914062500    0.9934768676757812    0.5057983398437500 Se
   0.3217163085937500    0.9934768676757812    0.4942016601562500 Se
   0.1782836914062500    0.4934768676757812    0.5057983398437500 Se
   0.8217163085937500    0.4934768676757812    0.4942016601562500 Se
   0.6629028320312500    0.7102661132812500    0.5099792480468750 Se
   0.3370971679687500    0.7102661132812500    0.4900207519531250 Se
   0.1629028320312500    0.2102661132812500    0.5099792480468750 Se
   0.8370971679687500    0.2102661132812500    0.4900207519531250 Se
   0.9088745117187500    0.0063629150390625    0.2056884765625000 Se
   0.0911254882812500    0.0063629150390625    0.7943115234375000 Se
   0.4088745117187500    0.5063629150390625    0.2056884765625000 Se
   0.5911254882812500    0.5063629150390625    0.7943115234375000 Se
   0.4088134765625000    0.8701782226562500    0.1732177734375000 Se
   0.5911865234375000    0.8701782226562500    0.8267822265625000 Se
   0.9088134765625000    0.3701782226562500    0.1732177734375000 Se
   0.0911865234375000    0.3701782226562500    0.8267822265625000 Se
   0.2259559631347656    0.3511352539062500    0.2206115722656250 In
   0.7740440368652344    0.3511352539062500    0.7793884277343750 In
   0.7259559631347656    0.8511352539062500    0.2206115722656250 In
   0.2740440368652344    0.8511352539062500    0.7793884277343750 In
