Ti12 C8
1.0
   4.8361520663848268    0.0000000000000000   -0.0003161905472689
  -0.0003162112206740    4.8361520560471103   -0.0003161905472689
   0.0000000000000000    0.0000000000000000   10.9276475906372070
Ti C Ti
4 8 8
direct
   0.0000000000000000    0.5000000000000000    0.0000000000000000 Ti
   0.0000000000000000    0.5000000000000000    0.5000000000000000 Ti
   0.5000000000000000    0.0000000000000000    0.5000000000000000 Ti
   0.5000000000000000    0.0000000000000000    0.0000000000000000 Ti
   0.0000000000000000    0.0000000000000000    0.1483154296875000 C
   0.5000000000000000    0.5000000000000000    0.6483154296875000 C
   0.5000000000000000    0.5000000000000000    0.3516845703125000 C
   0.0000000000000000    0.0000000000000000    0.8516845703125000 C
   0.5914001464843750    0.5914001464843750    0.0000000000000000 C
   0.4085998535156250    0.4085998535156250    0.0000000000000000 C
   0.9085998535156250    0.0914001464843750    0.5000000000000000 C
   0.0914001464843750    0.9085998535156250    0.5000000000000000 C
   0.3115806579589844    0.3115806579589844    0.8068542480468750 Ti
   0.6884193420410156    0.6884193420410156    0.8068542480468750 Ti
   0.1884193420410156    0.8115806579589844    0.3068542480468750 Ti
   0.8115806579589844    0.1884193420410156    0.3068542480468750 Ti
   0.1884193420410156    0.8115806579589844    0.6931457519531250 Ti
   0.8115806579589844    0.1884193420410156    0.6931457519531250 Ti
   0.3115806579589844    0.3115806579589844    0.1931457519531250 Ti
   0.6884193420410156    0.6884193420410156    0.1931457519531250 Ti
