Ti4 Co8 Ge4
1.0
   6.0151524415199642    0.0000000000000000   -0.0003932743049190
  -0.0003933000182716    6.0151524286620273   -0.0003932743049190
   0.0000000000000000    0.0000000000000000    6.0151524543762207
Ge Ti Co
4 4 8
direct
   0.0000000000000000    0.0000000000000000    0.0000000000000000 Ge
   0.0000000000000000    0.5000000000000000    0.5000000000000000 Ge
   0.5000000000000000    0.0000000000000000    0.5000000000000000 Ge
   0.5000000000000000    0.5000000000000000    0.0000000000000000 Ge
   0.5000000000000000    0.0000000000000000    0.0000000000000000 Ti
   0.0000000000000000    0.5000000000000000    0.0000000000000000 Ti
   0.0000000000000000    0.0000000000000000    0.5000000000000000 Ti
   0.5000000000000000    0.5000000000000000    0.5000000000000000 Ti
   0.2500000000000000    0.2500000000000000    0.2500000000000000 Co
   0.7500000000000000    0.7500000000000000    0.2500000000000000 Co
   0.7500000000000000    0.2500000000000000    0.7500000000000000 Co
   0.2500000000000000    0.7500000000000000    0.7500000000000000 Co
   0.2500000000000000    0.2500000000000000    0.7500000000000000 Co
   0.7500000000000000    0.7500000000000000    0.7500000000000000 Co
   0.2500000000000000    0.7500000000000000    0.2500000000000000 Co
   0.7500000000000000    0.2500000000000000    0.2500000000000000 Co
