Cs2 Fe2 Cl6
1.0
   7.9932527371273530    0.0000000000000000   -0.0005226036987088
  -3.9961729013908855    6.9226217188131169   -0.0005226036987088
   0.0000000000000000    0.0000000000000000    6.4998469352722168
Fe Cs Cl
2 2 6
direct
   0.0000000000000000    0.0000000000000000    0.0000000000000000 Fe
   0.0000000000000000    0.0000000000000000    0.5000000000000000 Fe
   0.6666666865348816    0.3333333432674408    0.2500000000000000 Cs
   0.3333333134651184    0.6666666269302368    0.7500000000000000 Cs
   0.1352386474609375    0.8647613525390625    0.2500000000000000 Cl
   0.1352386474609375    0.2704772949218750    0.2500000000000000 Cl
   0.7295227050781250    0.8647613525390625    0.2500000000000000 Cl
   0.8647613525390625    0.1352386474609375    0.7500000000000000 Cl
   0.8647613525390625    0.7295227050781250    0.7500000000000000 Cl
   0.2704772949218750    0.1352386474609375    0.7500000000000000 Cl
