Li4 Co2 O6
1.0
   4.6253678322401628    0.0000000000000000   -2.0163286784003258
  -1.2539397392153517    4.5748606438296298   -2.4103389605020560
   0.0000000000000000    0.0000000000000000    5.5959529876708984
Co Li O
2 4 6
direct
   0.5000000000000000    0.0000000000000000    0.0000000000000000 Co
   0.5000000000000000    0.0000000000000000    0.5000000000000000 Co
   0.0106201171875000    0.2425537109375000    0.3709106445312500 Li
   0.9893798828125000    0.7574462890625000    0.6290893554687500 Li
   0.7408752441406250    0.5579833984375000    0.9314117431640625 Li
   0.2591247558593750    0.4420166015625000    0.0685882568359375 Li
   0.6591796875000000    0.8231353759765625    0.7132568359375000 O
   0.3408203125000000    0.1768646240234375    0.2867431640625000 O
   0.2976074218750000    0.6403808593750000    0.8821411132812500 O
   0.7023925781250000    0.3596191406250000    0.1178588867187500 O
   0.2499694824218750    0.0987854003906250    0.6963500976562500 O
   0.7500305175781250    0.9012145996093750    0.3036499023437500 O
