Tb2 Co4 Si4
1.0
   3.9977497969060019    0.0000000000000000   -0.0002613752997789
  -0.0002613923892128    3.9977497883604469   -0.0002613752997789
   0.0000000000000000    0.0000000000000000   10.0237503051757812
Tb Co Si
2 4 4
direct
   0.0000000000000000    0.0000000000000000    0.0000000000000000 Tb
   0.5000000000000000    0.5000000000000000    0.5000000000000000 Tb
   0.0000000000000000    0.5000000000000000    0.2500000000000000 Co
   0.5000000000000000    0.0000000000000000    0.2500000000000000 Co
   0.0000000000000000    0.5000000000000000    0.7500000000000000 Co
   0.5000000000000000    0.0000000000000000    0.7500000000000000 Co
   0.5000000000000000    0.5000000000000000    0.1308593750000000 Si
   0.5000000000000000    0.5000000000000000    0.8691406250000000 Si
   0.0000000000000000    0.0000000000000000    0.6308593750000000 Si
   0.0000000000000000    0.0000000000000000    0.3691406250000000 Si
