Pt4 F48
1.0
   8.2683515371985603    0.0000000000000000   -0.0005405898246522
  -0.0005406251698975    8.2683515195242041   -0.0005405898246522
   0.0000000000000000    0.0000000000000000    8.2683515548706055
Pt F
4 48
direct
   0.0000000000000000    0.0000000000000000    0.0000000000000000 Pt
   0.0000000000000000    0.5000000000000000    0.5000000000000000 Pt
   0.5000000000000000    0.0000000000000000    0.5000000000000000 Pt
   0.5000000000000000    0.5000000000000000    0.0000000000000000 Pt
   0.2500000000000000    0.2500000000000000    0.0561523437500000 F
   0.7500000000000000    0.7500000000000000    0.0561523437500000 F
   0.7500000000000000    0.2500000000000000    0.9438476562500000 F
   0.2500000000000000    0.7500000000000000    0.9438476562500000 F
   0.0561523437500000    0.2500000000000000    0.2500000000000000 F
   0.0561523437500000    0.7500000000000000    0.7500000000000000 F
   0.9438476562500000    0.7500000000000000    0.2500000000000000 F
   0.9438476562500000    0.2500000000000000    0.7500000000000000 F
   0.2500000000000000    0.0561523437500000    0.2500000000000000 F
   0.7500000000000000    0.0561523437500000    0.7500000000000000 F
   0.2500000000000000    0.9438476562500000    0.7500000000000000 F
   0.7500000000000000    0.9438476562500000    0.2500000000000000 F
   0.2500000000000000    0.2500000000000000    0.9438476562500000 F
   0.7500000000000000    0.7500000000000000    0.9438476562500000 F
   0.2500000000000000    0.7500000000000000    0.0561523437500000 F
   0.7500000000000000    0.2500000000000000    0.0561523437500000 F
   0.2500000000000000    0.0561523437500000    0.7500000000000000 F
   0.7500000000000000    0.0561523437500000    0.2500000000000000 F
   0.7500000000000000    0.9438476562500000    0.7500000000000000 F
   0.2500000000000000    0.9438476562500000    0.2500000000000000 F
   0.0561523437500000    0.2500000000000000    0.7500000000000000 F
   0.0561523437500000    0.7500000000000000    0.2500000000000000 F
   0.9438476562500000    0.2500000000000000    0.2500000000000000 F
   0.9438476562500000    0.7500000000000000    0.7500000000000000 F
   0.2500000000000000    0.7500000000000000    0.5561523437500000 F
   0.7500000000000000    0.2500000000000000    0.5561523437500000 F
   0.7500000000000000    0.7500000000000000    0.4438476562500000 F
   0.2500000000000000    0.2500000000000000    0.4438476562500000 F
   0.2500000000000000    0.5561523437500000    0.7500000000000000 F
   0.7500000000000000    0.5561523437500000    0.2500000000000000 F
   0.2500000000000000    0.4438476562500000    0.2500000000000000 F
   0.7500000000000000    0.4438476562500000    0.7500000000000000 F
   0.2500000000000000    0.7500000000000000    0.4438476562500000 F
   0.7500000000000000    0.2500000000000000    0.4438476562500000 F
   0.2500000000000000    0.2500000000000000    0.5561523437500000 F
   0.7500000000000000    0.7500000000000000    0.5561523437500000 F
   0.2500000000000000    0.5561523437500000    0.2500000000000000 F
   0.7500000000000000    0.5561523437500000    0.7500000000000000 F
   0.7500000000000000    0.4438476562500000    0.2500000000000000 F
   0.2500000000000000    0.4438476562500000    0.7500000000000000 F
   0.5561523437500000    0.2500000000000000    0.7500000000000000 F
   0.5561523437500000    0.7500000000000000    0.2500000000000000 F
   0.4438476562500000    0.7500000000000000    0.7500000000000000 F
   0.4438476562500000    0.2500000000000000    0.2500000000000000 F
   0.5561523437500000    0.2500000000000000    0.2500000000000000 F
   0.5561523437500000    0.7500000000000000    0.7500000000000000 F
   0.4438476562500000    0.2500000000000000    0.7500000000000000 F
   0.4438476562500000    0.7500000000000000    0.2500000000000000 F
