Nd3 U3 N6
1.0
   3.6440496366817445    0.0000000000000000   -0.0002382501693663
  -1.8218180868711440    3.1559589054595625   -0.0002382501693663
   0.0000000000000000    0.0000000000000000   17.5300502777099609
Nd U N
3 3 6
direct
   0.0000000000000000    0.0000000000000000    0.0000000000000000 Nd
   0.6666666865348816    0.3333333432674408    0.3333333432674408 Nd
   0.3333333432674408    0.6666666865348816    0.6666666865348816 Nd
   0.3333333432674408    0.6666666865348816    0.1666666716337204 U
   0.6666666865348816    0.3333333432674408    0.8333333134651184 U
   0.0000000000000000    0.0000000000000000    0.5000000000000000 U
   0.6666666865348816    0.3333333432674408    0.0974426269531250 N
   0.3333333432674408    0.6666666865348816    0.9025573730468750 N
   0.3333333730697632    0.6666666865348816    0.4307759702205658 N
   0.0000000000000000    0.0000000000000000    0.2358907163143158 N
   0.0000000000000000    0.0000000000000000    0.7641093134880066 N
   0.6666666865348816    0.3333333730697632    0.5692240595817566 N
