Sr4 La4 Mn4 O20
1.0
   5.6614484665984497    0.0000000000000000   -0.0003701489250992
  -0.0003701731264510    5.6614484544965871   -0.0003701489250992
   0.0000000000000000    0.0000000000000000   15.1327505111694336
Sr Mn O La O
4 4 4 4 16
direct
   0.0000000000000000    0.0000000000000000    0.2500000000000000 Sr
   0.0000000000000000    0.0000000000000000    0.7500000000000000 Sr
   0.5000000000000000    0.5000000000000000    0.7500000000000000 Sr
   0.5000000000000000    0.5000000000000000    0.2500000000000000 Sr
   0.5000000000000000    0.0000000000000000    0.2500000000000000 Mn
   0.0000000000000000    0.5000000000000000    0.2500000000000000 Mn
   0.5000000000000000    0.0000000000000000    0.7500000000000000 Mn
   0.0000000000000000    0.5000000000000000    0.7500000000000000 Mn
   0.0000000000000000    0.0000000000000000    0.0000000000000000 O
   0.0000000000000000    0.0000000000000000    0.5000000000000000 O
   0.5000000000000000    0.5000000000000000    0.5000000000000000 O
   0.5000000000000000    0.5000000000000000    0.0000000000000000 O
   0.5000000000000000    0.0000000000000000    0.0000000000000000 La
   0.0000000000000000    0.5000000000000000    0.0000000000000000 La
   0.5000000000000000    0.0000000000000000    0.5000000000000000 La
   0.0000000000000000    0.5000000000000000    0.5000000000000000 La
   0.1566009521484375    0.3433990478515625    0.8514709472656250 O
   0.8433990478515625    0.6566009521484375    0.8514709472656250 O
   0.6566009521484375    0.1566009521484375    0.8514709472656250 O
   0.3433990478515625    0.8433990478515625    0.8514709472656250 O
   0.8433990478515625    0.3433990478515625    0.6485290527343750 O
   0.1566009521484375    0.6566009521484375    0.6485290527343750 O
   0.3433990478515625    0.1566009521484375    0.6485290527343750 O
   0.6566009521484375    0.8433990478515625    0.6485290527343750 O
   0.8433990478515625    0.6566009521484375    0.1485290527343750 O
   0.1566009521484375    0.3433990478515625    0.1485290527343750 O
   0.3433990478515625    0.8433990478515625    0.1485290527343750 O
   0.6566009521484375    0.1566009521484375    0.1485290527343750 O
   0.1566009521484375    0.6566009521484375    0.3514709472656250 O
   0.8433990478515625    0.3433990478515625    0.3514709472656250 O
   0.6566009521484375    0.8433990478515625    0.3514709472656250 O
   0.3433990478515625    0.1566009521484375    0.3514709472656250 O
