Nb1 V8 Si1 W1
1.0
   4.4300508404461514    0.0000000000000000   -0.0002896394034848
  -2.2147740979271342    3.8366816579029206   -0.0002896394034848
   0.0000000000000000    0.0000000000000000    7.3513479232788086
Si Nb V W V
1 1 2 1 6
direct
   0.0000000000000000    0.0000000000000000    0.7692260742187500 Si
   0.0000000000000000    0.0000000000000000    0.2858886718750000 Nb
   0.3333333432674408    0.6666666865348816    0.1855468750000000 V
   0.3333333432674408    0.6666666865348816    0.7329101562500000 V
   0.3333333432674408    0.6666666865348816    0.4243621826171875 W
   0.1630859375000000    0.8369140625000000    0.9886474609375000 V
   0.1630859375000000    0.3261718750000000    0.9886474609375000 V
   0.6738281250000000    0.8369140625000000    0.9886474609375000 V
   0.8232116699218750    0.6464233398437500    0.5728149414062500 V
   0.3535766601562500    0.1767883300781250    0.5728149414062500 V
   0.8232116699218750    0.1767883300781250    0.5728149414062500 V
