Rb8 Na4 Nb4 Br24
1.0
  11.1110467673288884    0.0000000000000000   -0.0007264469582153
  -0.0007264944553097   11.1110467435780116   -0.0007264469582153
   0.0000000000000000    0.0000000000000000   11.1110467910766602
Nb Na Rb Br
4 4 8 24
direct
   0.0000000000000000    0.0000000000000000    0.0000000000000000 Nb
   0.0000000000000000    0.5000000000000000    0.5000000000000000 Nb
   0.5000000000000000    0.0000000000000000    0.5000000000000000 Nb
   0.5000000000000000    0.5000000000000000    0.0000000000000000 Nb
   0.5000000000000000    0.0000000000000000    0.0000000000000000 Na
   0.0000000000000000    0.5000000000000000    0.0000000000000000 Na
   0.0000000000000000    0.0000000000000000    0.5000000000000000 Na
   0.5000000000000000    0.5000000000000000    0.5000000000000000 Na
   0.2500000000000000    0.2500000000000000    0.2500000000000000 Rb
   0.7500000000000000    0.7500000000000000    0.2500000000000000 Rb
   0.7500000000000000    0.2500000000000000    0.7500000000000000 Rb
   0.2500000000000000    0.7500000000000000    0.7500000000000000 Rb
   0.2500000000000000    0.2500000000000000    0.7500000000000000 Rb
   0.7500000000000000    0.7500000000000000    0.7500000000000000 Rb
   0.2500000000000000    0.7500000000000000    0.2500000000000000 Rb
   0.7500000000000000    0.2500000000000000    0.2500000000000000 Rb
   0.7717742919921875    0.0000000000000000    0.0000000000000000 Br
   0.2282257080078125    0.0000000000000000    0.0000000000000000 Br
   0.0000000000000000    0.7717742919921875    0.0000000000000000 Br
   0.0000000000000000    0.2282257080078125    0.0000000000000000 Br
   0.0000000000000000    0.0000000000000000    0.7717742919921875 Br
   0.0000000000000000    0.0000000000000000    0.2282257080078125 Br
   0.7717742919921875    0.5000000000000000    0.5000000000000000 Br
   0.2282257080078125    0.5000000000000000    0.5000000000000000 Br
   0.0000000000000000    0.2717742919921875    0.5000000000000000 Br
   0.0000000000000000    0.7282257080078125    0.5000000000000000 Br
   0.0000000000000000    0.5000000000000000    0.2717742919921875 Br
   0.0000000000000000    0.5000000000000000    0.7282257080078125 Br
   0.2717742919921875    0.0000000000000000    0.5000000000000000 Br
   0.7282257080078125    0.0000000000000000    0.5000000000000000 Br
   0.5000000000000000    0.7717742919921875    0.5000000000000000 Br
   0.5000000000000000    0.2282257080078125    0.5000000000000000 Br
   0.5000000000000000    0.0000000000000000    0.2717742919921875 Br
   0.5000000000000000    0.0000000000000000    0.7282257080078125 Br
   0.2717742919921875    0.5000000000000000    0.0000000000000000 Br
   0.7282257080078125    0.5000000000000000    0.0000000000000000 Br
   0.5000000000000000    0.2717742919921875    0.0000000000000000 Br
   0.5000000000000000    0.7282257080078125    0.0000000000000000 Br
   0.5000000000000000    0.5000000000000000    0.7717742919921875 Br
   0.5000000000000000    0.5000000000000000    0.2282257080078125 Br
