Dy4 Co4 O12
1.0
   5.3077525979086078    0.0000000000000000   -0.0003470240752697
  -0.0004806669979649    7.3513478918525097   -0.0004806355726930
   0.0000000000000000    0.0000000000000000    5.2029504776000977
Co O Dy O
4 4 4 8
direct
   0.0000000000000000    0.0000000000000000    0.0000000000000000 Co
   0.5000000000000000    0.0000000000000000    0.5000000000000000 Co
   0.0000000000000000    0.5000000000000000    0.0000000000000000 Co
   0.5000000000000000    0.5000000000000000    0.5000000000000000 Co
   0.9818725585937500    0.2500000000000000    0.9074707031250000 O
   0.5181274414062500    0.7500000000000000    0.4074707031250000 O
   0.0181274414062500    0.7500000000000000    0.0925292968750000 O
   0.4818725585937500    0.2500000000000000    0.5925292968750000 O
   0.0681152343750000    0.2500000000000000    0.4759445190429688 Dy
   0.4318847656250000    0.7500000000000000    0.9759445190429688 Dy
   0.9318847656250000    0.7500000000000000    0.5240554809570312 Dy
   0.5681152343750000    0.2500000000000000    0.0240554809570312 Dy
   0.6953735351562500    0.5487594604492188    0.8054199218750000 O
   0.8046264648437500    0.4512405395507812    0.3054199218750000 O
   0.3046264648437500    0.0487594604492188    0.1945800781250000 O
   0.1953735351562500    0.9512405395507812    0.6945800781250000 O
   0.3046264648437500    0.4512405395507812    0.1945800781250000 O
   0.1953735351562500    0.5487594604492188    0.6945800781250000 O
   0.6953735351562500    0.9512405395507812    0.8054199218750000 O
   0.8046264648437500    0.0487594604492188    0.3054199218750000 O
