Ho1 Co6 Ge6
1.0
   5.0195512664322983    0.0000000000000000   -0.0003281812978978
  -2.5094908678275991    4.3472233092667301   -0.0003281812978978
   0.0000000000000000    0.0000000000000000    7.6264467239379883
Ho Ge Co
1 6 6
direct
   0.0000000000000000    0.0000000000000000    0.0000000000000000 Ho
   0.6666666865348816    0.3333333432674408    0.0000000000000000 Ge
   0.3333333134651184    0.6666666269302368    0.0000000000000000 Ge
   0.6666666865348816    0.3333333432674408    0.5000000000000000 Ge
   0.3333333134651184    0.6666666269302368    0.5000000000000000 Ge
   0.0000000000000000    0.0000000000000000    0.3486328125000000 Ge
   0.0000000000000000    0.0000000000000000    0.6513671875000000 Ge
   0.5000000000000000    0.0000000000000000    0.7529907226562500 Co
   0.0000000000000000    0.5000000000000000    0.7529907226562500 Co
   0.5000000000000000    0.5000000000000000    0.7529907226562500 Co
   0.0000000000000000    0.5000000000000000    0.2470092773437500 Co
   0.5000000000000000    0.0000000000000000    0.2470092773437500 Co
   0.5000000000000000    0.5000000000000000    0.2470092773437500 Co
