Li4 Cu3 F12
1.0
   4.9671429324998533    0.0000000000000000    0.0087776487874690
   2.6883076373472390    4.7585465261753406    1.5263571573499271
   0.0000000000000000    0.0000000000000000    9.0543498992919922
Cu Li F
3 4 12
direct
   0.0000000000000000    0.0000000000000000    0.0000000000000000 Cu
   0.0000000000000000    0.5000000000000000    0.5000000000000000 Cu
   0.5000000000000000    0.5000000000000000    0.5000000000000000 Cu
   0.0252685546875000    0.0299682617187500    0.6807861328125000 Li
   0.9747314453125000    0.9700317382812500    0.3192138671875000 Li
   0.3838806152343750    0.2670288085937500    0.1909179687500000 Li
   0.6161193847656250    0.7329711914062500    0.8090820312500000 Li
   0.7680664062500000    0.4530639648437500    0.6654357910156250 F
   0.2319335937500000    0.5469360351562500    0.3345642089843750 F
   0.6832275390625000    0.8231201171875000    0.3969726562500000 F
   0.3167724609375000    0.1768798828125000    0.6030273437500000 F
   0.1801757812500000    0.7325439453125000    0.5760803222656250 F
   0.8198242187500000    0.2674560546875000    0.4239196777343750 F
   0.8053588867187500    0.9390869140625000    0.8294067382812500 F
   0.1946411132812500    0.0609130859375000    0.1705932617187500 F
   0.2722778320312500    0.9680175781250000    0.8764648437500000 F
   0.7277221679687500    0.0319824218750000    0.1235351562500000 F
   0.7783508300781250    0.4434204101562500    0.9658203125000000 F
   0.2216491699218750    0.5565795898437500    0.0341796875000000 F
