Ca2 W2 O10
1.0
   4.3451316797321775    0.0000000000000000   -3.0482894296341203
  -0.0006953558365784    5.5304502885510773   -0.0003615841878416
   0.0000000000000000    0.0000000000000000    9.2246503829956055
O Ca W
10 2 2
direct
   0.1625976562500000    0.0864791870117188    0.8485717773437500 O
   0.1625976562500000    0.9135208129882812    0.3485717773437500 O
   0.6350097656250000    0.2764282226562500    0.1674804687500000 O
   0.6350097656250000    0.7235717773437500    0.6674804687500000 O
   0.1815185546875000    0.4419708251953125    0.6706542968750000 O
   0.1815185546875000    0.5580291748046875    0.1706542968750000 O
   0.6635742187500000    0.7785034179687500    0.3747558593750000 O
   0.6635742187500000    0.2214965820312500    0.8747558593750000 O
   0.5643310546875000    0.3437500000000000    0.4681396484375000 O
   0.5643310546875000    0.6562500000000000    0.9681396484375000 O
   0.9379577636718750    0.8692626953125000    0.9863281250000000 Ca
   0.9379577636718750    0.1307373046875000    0.4863281250000000 Ca
   0.4080963134765625    0.3635253906250000    0.9288330078125000 W
   0.4080963134765625    0.6364746093750000    0.4288330078125000 W
