Lu8 Zn4 Ir4
1.0
   6.9452504963252677    0.0000000000000000   -0.0004540846783162
  -0.0004541143676178    6.9452504814791611   -0.0004540846783162
   0.0000000000000000    0.0000000000000000    6.9452505111694336
Zn Ir Lu
4 4 8
direct
   0.0000000000000000    0.0000000000000000    0.0000000000000000 Zn
   0.0000000000000000    0.5000000000000000    0.5000000000000000 Zn
   0.5000000000000000    0.0000000000000000    0.5000000000000000 Zn
   0.5000000000000000    0.5000000000000000    0.0000000000000000 Zn
   0.5000000000000000    0.0000000000000000    0.0000000000000000 Ir
   0.0000000000000000    0.5000000000000000    0.0000000000000000 Ir
   0.0000000000000000    0.0000000000000000    0.5000000000000000 Ir
   0.5000000000000000    0.5000000000000000    0.5000000000000000 Ir
   0.2500000000000000    0.2500000000000000    0.2500000000000000 Lu
   0.7500000000000000    0.7500000000000000    0.2500000000000000 Lu
   0.7500000000000000    0.2500000000000000    0.7500000000000000 Lu
   0.2500000000000000    0.7500000000000000    0.7500000000000000 Lu
   0.2500000000000000    0.2500000000000000    0.7500000000000000 Lu
   0.7500000000000000    0.7500000000000000    0.7500000000000000 Lu
   0.2500000000000000    0.7500000000000000    0.2500000000000000 Lu
   0.7500000000000000    0.2500000000000000    0.2500000000000000 Lu
