Eu4 Zn8
1.0
   7.2596483075429505    0.0000000000000000   -0.0004746401973786
  -0.0002691012596192    4.1156496825707913   -0.0002690836661912
   0.0000000000000000    0.0000000000000000    9.2901496887207031
Zn Eu
8 4
direct
   0.1469726562500000    0.2500000000000000    0.0663146972656250 Zn
   0.3530273437500000    0.7500000000000000    0.5663146972656250 Zn
   0.8530273437500000    0.7500000000000000    0.9336853027343750 Zn
   0.6469726562500000    0.2500000000000000    0.4336853027343750 Zn
   0.7683105468750000    0.2500000000000000    0.1116943359375000 Zn
   0.7316894531250000    0.7500000000000000    0.6116943359375000 Zn
   0.2316894531250000    0.7500000000000000    0.8883056640625000 Zn
   0.2683105468750000    0.2500000000000000    0.3883056640625000 Zn
   0.0355834960937500    0.2500000000000000    0.6893920898437500 Eu
   0.4644165039062500    0.7500000000000000    0.1893920898437500 Eu
   0.9644165039062500    0.7500000000000000    0.3106079101562500 Eu
   0.5355834960937500    0.2500000000000000    0.8106079101562500 Eu
