Pa4 Ge4
1.0
   6.9452504963252677    0.0000000000000000   -0.0004540846783162
  -0.0002879452378056    4.4038505365938878   -0.0002879264123871
   0.0000000000000000    0.0000000000000000    7.4561495780944824
Ge Pa
4 4
direct
   0.0340576171875000    0.2500000000000000    0.8426399230957031 Ge
   0.4659423828125000    0.7500000000000000    0.3426399230957031 Ge
   0.9659423828125000    0.7500000000000000    0.1573600769042969 Ge
   0.5340576171875000    0.2500000000000000    0.6573600769042969 Ge
   0.6634521484375000    0.2500000000000000    0.1192626953125000 Pa
   0.8365478515625000    0.7500000000000000    0.6192626953125000 Pa
   0.3365478515625000    0.7500000000000000    0.8807373046875000 Pa
   0.1634521484375000    0.2500000000000000    0.3807373046875000 Pa
