Na2 F6
1.0
   3.8012521185692645    0.0000000000000000   -0.0002485281627168
  -0.0002485444121696    3.8012521104437416   -0.0002485281627168
   0.0000000000000000    0.0000000000000000    7.3513479232788086
Na F
2 6
direct
   0.0000000000000000    0.0000000000000000    0.0000000000000000 Na
   0.5000000000000000    0.5000000000000000    0.5000000000000000 Na
   0.5000000000000000    0.5000000000000000    0.0000000000000000 F
   0.0000000000000000    0.0000000000000000    0.5000000000000000 F
   0.0000000000000000    0.5000000000000000    0.2500000000000000 F
   0.5000000000000000    0.0000000000000000    0.2500000000000000 F
   0.0000000000000000    0.5000000000000000    0.7500000000000000 F
   0.5000000000000000    0.0000000000000000    0.7500000000000000 F
