W4 N12
1.0
   3.9060501968822656    0.0000000000000000   -0.0002553799244645
  -0.0007701782413468   11.7791490051262375   -0.0007701278882734
   0.0000000000000000    0.0000000000000000    4.1025476455688477
N W
12 4
direct
   0.0000000000000000    0.8762817382812500    0.2404174804687500 N
   0.0000000000000000    0.1237182617187500    0.7404174804687500 N
   0.5000000000000000    0.3762817382812500    0.2404174804687500 N
   0.5000000000000000    0.6237182617187500    0.7404174804687500 N
   0.0000000000000000    0.2189941406250000    0.5944519042968750 N
   0.0000000000000000    0.7810058593750000    0.0944519042968750 N
   0.5000000000000000    0.7189941406250000    0.5944519042968750 N
   0.5000000000000000    0.2810058593750000    0.0944519042968750 N
   0.0000000000000000    0.5913085937500000    0.2615356445312500 N
   0.0000000000000000    0.4086914062500000    0.7615356445312500 N
   0.5000000000000000    0.0913085937500000    0.2615356445312500 N
   0.5000000000000000    0.9086914062500000    0.7615356445312500 N
   0.0000000000000000    0.1259765625000000    0.2198028564453125 W
   0.0000000000000000    0.8740234375000000    0.7198028564453125 W
   0.5000000000000000    0.6259765625000000    0.2198028564453125 W
   0.5000000000000000    0.3740234375000000    0.7198028564453125 W
