Tm4 Ni4 Sn4
1.0
   6.9714474529037984    0.0000000000000000   -0.0004557974511827
  -0.0002750970269278    4.2073492823985115   -0.0002750790415056
   0.0000000000000000    0.0000000000000000    7.4823498725891113
Ni Sn Tm
4 4 4
direct
   0.7263183593750000    0.2500000000000000    0.3983764648437500 Ni
   0.7736816406250000    0.7500000000000000    0.8983764648437500 Ni
   0.2736816406250000    0.7500000000000000    0.6016235351562500 Ni
   0.2263183593750000    0.2500000000000000    0.1016235351562500 Ni
   0.8199462890625000    0.2500000000000000    0.0822143554687500 Sn
   0.6800537109375000    0.7500000000000000    0.5822143554687500 Sn
   0.1800537109375000    0.7500000000000000    0.9177856445312500 Sn
   0.3199462890625000    0.2500000000000000    0.4177856445312500 Sn
   0.4811553955078125    0.2500000000000000    0.8095092773437500 Tm
   0.0188446044921875    0.7500000000000000    0.3095092773437500 Tm
   0.5188446044921875    0.7500000000000000    0.1904907226562500 Tm
   0.9811553955078125    0.2500000000000000    0.6904907226562500 Tm
