As4 I8
1.0
   4.2728524116744673    0.0000000000000000   -0.0002793616751296
  -0.0006100048788431    9.3294486600686835   -0.0006099649976588
   0.0000000000000000    0.0000000000000000   13.7179498672485352
As I
4 8
direct
   0.9012756347656250    0.0394287109375000    0.1175537109375000 As
   0.5987243652343750    0.9605712890625000    0.6175537109375000 As
   0.0987243652343750    0.5394287109375000    0.3824462890625000 As
   0.4012756347656250    0.4605712890625000    0.8824462890625000 As
   0.4535827636718750    0.7494354248046875    0.2849121093750000 I
   0.0464172363281250    0.2505645751953125    0.7849121093750000 I
   0.5464172363281250    0.2494354248046875    0.2150878906250000 I
   0.9535827636718750    0.7505645751953125    0.7150878906250000 I
   0.0650634765625000    0.0516357421875000    0.4862060546875000 I
   0.4349365234375000    0.9483642578125000    0.9862060546875000 I
   0.9349365234375000    0.5516357421875000    0.0137939453125000 I
   0.5650634765625000    0.4483642578125000    0.5137939453125000 I
