Ta3 Al5 Fe1 W1
1.0
   3.9191484367529523    0.0000000000000000   -0.0002562362953097
  -0.0002562530487414    3.9191484283754150   -0.0002562362953097
   0.0000000000000000    0.0000000000000000    9.0281524658203125
Ta W Fe Al Ta Al
1 1 1 1 2 4
direct
   0.0000000000000000    0.0000000000000000    0.0000000000000000 Ta
   0.0000000000000000    0.0000000000000000    0.5000000000000000 W
   0.5000000000000000    0.5000000000000000    0.0000000000000000 Fe
   0.5000000000000000    0.5000000000000000    0.5000000000000000 Al
   0.0000000000000000    0.0000000000000000    0.6718444824218750 Ta
   0.0000000000000000    0.0000000000000000    0.3281555175781250 Ta
   0.0000000000000000    0.5000000000000000    0.1719970703125000 Al
   0.5000000000000000    0.0000000000000000    0.1719970703125000 Al
   0.0000000000000000    0.5000000000000000    0.8280029296875000 Al
   0.5000000000000000    0.0000000000000000    0.8280029296875000 Al
