Cd2 In2 Cl8
1.0
   7.4172679697186403    0.0000000000000000   -3.2172333516249272
  -3.8582772514218759    7.5196444613496833   -0.0271045372148301
   0.0000000000000000    0.0000000000000000   13.4690475463867188
Cl Cd In
8 2 2
direct
   0.1159667968750000    0.8764696121215820    0.1805877685546875 Cl
   0.8840332031250000    0.1235303878784180    0.8194122314453125 Cl
   0.6434326171875000    0.4186706542968750    0.7270507812500000 Cl
   0.3565673828125000    0.5813293457031250    0.2729492187500000 Cl
   0.6929931640625000    0.0624084472656250    0.1662521362304688 Cl
   0.3070068359375000    0.9375915527343750    0.8337478637695312 Cl
   0.6608276367187500    0.1939239501953125    0.4332580566406250 Cl
   0.3391723632812500    0.8060760498046875    0.5667419433593750 Cl
   0.4703369140625000    0.9186706542968750    0.2722778320312500 Cd
   0.5296630859375000    0.0813293457031250    0.7277221679687500 Cd
   0.0513916015625000    0.5598678588867188    0.7333679199218750 In
   0.9486083984375000    0.4401321411132812    0.2666320800781250 In
