Yb20 Ge12
1.0
   7.6788472965151557    0.0000000000000000   -0.0005020476808320
  -0.0005020805060862    7.6788472801009195   -0.0005020476808320
   0.0000000000000000    0.0000000000000000   13.6655492782592773
Ge Yb Ge Yb
4 4 8 16
direct
   0.0000000000000000    0.0000000000000000    0.2500000000000000 Ge
   0.0000000000000000    0.0000000000000000    0.7500000000000000 Ge
   0.5000000000000000    0.5000000000000000    0.7500000000000000 Ge
   0.5000000000000000    0.5000000000000000    0.2500000000000000 Ge
   0.0000000000000000    0.0000000000000000    0.0000000000000000 Yb
   0.0000000000000000    0.0000000000000000    0.5000000000000000 Yb
   0.5000000000000000    0.5000000000000000    0.5000000000000000 Yb
   0.5000000000000000    0.5000000000000000    0.0000000000000000 Yb
   0.8826599121093750    0.6173400878906250    0.0000000000000000 Ge
   0.1173400878906250    0.3826599121093750    0.0000000000000000 Ge
   0.3826599121093750    0.8826599121093750    0.0000000000000000 Ge
   0.6173400878906250    0.1173400878906250    0.0000000000000000 Ge
   0.1173400878906250    0.6173400878906250    0.5000000000000000 Ge
   0.8826599121093750    0.3826599121093750    0.5000000000000000 Ge
   0.6173400878906250    0.8826599121093750    0.5000000000000000 Ge
   0.3826599121093750    0.1173400878906250    0.5000000000000000 Ge
   0.8242492675781250    0.6757507324218750    0.6518859863281250 Yb
   0.1757507324218750    0.3242492675781250    0.6518859863281250 Yb
   0.3242492675781250    0.8242492675781250    0.6518859863281250 Yb
   0.6757507324218750    0.1757507324218750    0.6518859863281250 Yb
   0.1757507324218750    0.6757507324218750    0.8481140136718750 Yb
   0.8242492675781250    0.3242492675781250    0.8481140136718750 Yb
   0.6757507324218750    0.8242492675781250    0.8481140136718750 Yb
   0.3242492675781250    0.1757507324218750    0.8481140136718750 Yb
   0.1757507324218750    0.3242492675781250    0.3481140136718750 Yb
   0.8242492675781250    0.6757507324218750    0.3481140136718750 Yb
   0.6757507324218750    0.1757507324218750    0.3481140136718750 Yb
   0.3242492675781250    0.8242492675781250    0.3481140136718750 Yb
   0.8242492675781250    0.3242492675781250    0.1518859863281250 Yb
   0.1757507324218750    0.6757507324218750    0.1518859863281250 Yb
   0.3242492675781250    0.1757507324218750    0.1518859863281250 Yb
   0.6757507324218750    0.8242492675781250    0.1518859863281250 Yb
