K8 Mn4 Te12
1.0
   4.6265487572014665    0.0000000000000000   -0.0003024865561350
  -0.0009389168699161   14.3598470073996669   -0.0009388554849697
   0.0000000000000000    0.0000000000000000   15.7877502441406250
Mn Te K Te
4 4 8 8
direct
   0.5000000000000000    0.8399353027343750    0.2500000000000000 Mn
   0.5000000000000000    0.1600646972656250    0.7500000000000000 Mn
   0.0000000000000000    0.3399353027343750    0.2500000000000000 Mn
   0.0000000000000000    0.6600646972656250    0.7500000000000000 Mn
   0.5000000000000000    0.2343139648437500    0.2500000000000000 Te
   0.5000000000000000    0.7656860351562500    0.7500000000000000 Te
   0.0000000000000000    0.7343139648437500    0.2500000000000000 Te
   0.0000000000000000    0.2656860351562500    0.7500000000000000 Te
   0.0000000000000000    0.8870849609375000    0.8942661285400391 K
   0.0000000000000000    0.1129150390625000    0.3942661285400391 K
   0.0000000000000000    0.8870849609375000    0.6057338714599609 K
   0.0000000000000000    0.1129150390625000    0.1057338714599609 K
   0.5000000000000000    0.3870849609375000    0.8942661285400391 K
   0.5000000000000000    0.6129150390625000    0.3942661285400391 K
   0.5000000000000000    0.3870849609375000    0.6057338714599609 K
   0.5000000000000000    0.6129150390625000    0.1057338714599609 K
   0.5000000000000000    0.1076965332031250    0.9071655273437500 Te
   0.5000000000000000    0.8923034667968750    0.4071655273437500 Te
   0.5000000000000000    0.1076965332031250    0.5928344726562500 Te
   0.5000000000000000    0.8923034667968750    0.0928344726562500 Te
   0.0000000000000000    0.6076965332031250    0.9071655273437500 Te
   0.0000000000000000    0.3923034667968750    0.4071655273437500 Te
   0.0000000000000000    0.6076965332031250    0.5928344726562500 Te
   0.0000000000000000    0.3923034667968750    0.0928344726562500 Te
