Y4 In4 Pd8
1.0
   6.8535508963015319    0.0000000000000000   -0.0004480893030017
  -0.0004481186003092    6.8535508816514419   -0.0004480893030017
   0.0000000000000000    0.0000000000000000    6.8535509109497070
In Y Pd
4 4 8
direct
   0.0000000000000000    0.0000000000000000    0.0000000000000000 In
   0.0000000000000000    0.5000000000000000    0.5000000000000000 In
   0.5000000000000000    0.0000000000000000    0.5000000000000000 In
   0.5000000000000000    0.5000000000000000    0.0000000000000000 In
   0.5000000000000000    0.0000000000000000    0.0000000000000000 Y
   0.0000000000000000    0.5000000000000000    0.0000000000000000 Y
   0.0000000000000000    0.0000000000000000    0.5000000000000000 Y
   0.5000000000000000    0.5000000000000000    0.5000000000000000 Y
   0.2500000000000000    0.2500000000000000    0.2500000000000000 Pd
   0.7500000000000000    0.7500000000000000    0.2500000000000000 Pd
   0.7500000000000000    0.2500000000000000    0.7500000000000000 Pd
   0.2500000000000000    0.7500000000000000    0.7500000000000000 Pd
   0.2500000000000000    0.2500000000000000    0.7500000000000000 Pd
   0.7500000000000000    0.7500000000000000    0.7500000000000000 Pd
   0.2500000000000000    0.7500000000000000    0.2500000000000000 Pd
   0.7500000000000000    0.2500000000000000    0.2500000000000000 Pd
