Te4 Mo8
1.0
  13.1365478519241616    0.0000000000000000   -6.7139935485021631
  -0.0003767355517857    3.5261494836754932   -0.0002305417873661
   0.0000000000000000    0.0000000000000000    6.6832504272460938
Mo Te
8 4
direct
   0.4478149414062500    0.0000000000000000    0.1216735839843750 Mo
   0.5521850585937500    0.0000000000000000    0.8783264160156250 Mo
   0.9478149414062500    0.5000000000000000    0.1216735839843750 Mo
   0.0521850585937500    0.5000000000000000    0.8783264160156250 Mo
   0.3373413085937500    0.0000000000000000    0.6155853271484375 Mo
   0.6626586914062500    0.0000000000000000    0.3844146728515625 Mo
   0.8373413085937500    0.5000000000000000    0.6155853271484375 Mo
   0.1626586914062500    0.5000000000000000    0.3844146728515625 Mo
   0.1815795898437500    0.0000000000000000    0.7558593750000000 Te
   0.8184204101562500    0.0000000000000000    0.2441406250000000 Te
   0.6815795898437500    0.5000000000000000    0.7558593750000000 Te
   0.3184204101562500    0.5000000000000000    0.2441406250000000 Te
