Hf4 Cr6 Ge2
1.0
   5.1374511608946651    0.0000000000000000   -0.0003358896643101
  -2.5684341264510815    4.4493314743520083   -0.0003358896643101
   0.0000000000000000    0.0000000000000000    8.0849523544311523
Ge Hf Cr
2 4 6
direct
   0.0000000000000000    0.0000000000000000    0.0000000000000000 Ge
   0.0000000000000000    0.0000000000000000    0.5000000000000000 Ge
   0.6666666865348816    0.3333333432674408    0.4998779296875000 Hf
   0.3333333134651184    0.6666666269302368    0.9998779296875000 Hf
   0.3333333432674408    0.6666666865348816    0.5001220703125000 Hf
   0.6666666269302368    0.3333333134651184    0.0001220703125000 Hf
   0.5013351440429688    0.0026702880859375    0.2500000000000000 Cr
   0.9973297119140625    0.4986648559570312    0.2500000000000000 Cr
   0.5013351440429688    0.4986648559570312    0.2500000000000000 Cr
   0.4986648559570312    0.9973297119140625    0.7500000000000000 Cr
   0.0026702880859375    0.5013351440429688    0.7500000000000000 Cr
   0.4986648559570312    0.5013351440429688    0.7500000000000000 Cr
