Dy2 Fe8 Si4
1.0
   6.9452504963252677    0.0000000000000000   -0.0004540846783162
  -0.0004541143676178    6.9452504814791611   -0.0004540846783162
   0.0000000000000000    0.0000000000000000    3.8274488449096680
Dy Si Fe
2 4 8
direct
   0.5000000000000000    0.5000000000000000    0.0000000000000000 Dy
   0.0000000000000000    0.0000000000000000    0.5000000000000000 Dy
   0.7123413085937500    0.7123413085937500    0.5000000000000000 Si
   0.2876586914062500    0.2876586914062500    0.5000000000000000 Si
   0.7876586914062500    0.2123413085937500    0.0000000000000000 Si
   0.2123413085937500    0.7876586914062500    0.0000000000000000 Si
   0.4153442382812500    0.8515472412109375    0.5000000000000000 Fe
   0.5846557617187500    0.1484527587890625    0.5000000000000000 Fe
   0.6484527587890625    0.9153442382812500    0.0000000000000000 Fe
   0.3515472412109375    0.0846557617187500    0.0000000000000000 Fe
   0.0846557617187500    0.3515472412109375    0.0000000000000000 Fe
   0.9153442382812500    0.6484527587890625    0.0000000000000000 Fe
   0.8515472412109375    0.4153442382812500    0.5000000000000000 Fe
   0.1484527587890625    0.5846557617187500    0.5000000000000000 Fe
