Cu2 C4
1.0
   4.6265487572014665    0.0000000000000000   -0.0003024865561350
  -0.0003350552300383    5.1243533869073623   -0.0003350333246407
   0.0000000000000000    0.0000000000000000    3.3034477233886719
Cu C
2 4
direct
   0.0000000000000000    0.0000000000000000    0.0000000000000000 Cu
   0.5000000000000000    0.5000000000000000    0.5000000000000000 Cu
   0.1143035888671875    0.4115447998046875    0.0000000000000000 C
   0.8856964111328125    0.5884552001953125    0.0000000000000000 C
   0.3856964111328125    0.9115447998046875    0.5000000000000000 C
   0.6143035888671875    0.0884552001953125    0.5000000000000000 C
