Sm6 Ga6 Co45
1.0
   8.4386482058409307    0.0000000000000000   -0.0005517239238528
  -4.2188453679085844    7.3083600967398050   -0.0005517239238528
   0.0000000000000000    0.0000000000000000   12.2769451141357422
Ga Sm Co
6 6 45
direct
   0.3333333432674408    0.6666666865348816    0.7687072753906250 Ga
   0.6666666865348816    0.3333333432674408    0.2312927246093750 Ga
   0.0000000000000000    0.0000000000000000    0.1020406484603882 Ga
   0.3333333730697632    0.6666666865348816    0.5646260976791382 Ga
   0.6666666865348816    0.3333333730697632    0.4353740215301514 Ga
   0.0000000000000000    0.0000000000000000    0.8979594111442566 Ga
   0.3333333432674408    0.6666666865348816    0.3210830688476562 Sm
   0.6666666865348816    0.3333333432674408    0.6789169311523438 Sm
   0.0000000000000000    0.0000000000000000    0.6544164419174194 Sm
   0.3333333730697632    0.6666666865348816    0.0122502744197845 Sm
   0.6666666865348816    0.3333333730697632    0.9877497553825378 Sm
   0.0000000000000000    0.0000000000000000    0.3455836176872253 Sm
   0.3333333432674408    0.1666666716337204    0.1666666716337204 Co
   0.8333333134651184    0.1666666716337204    0.1666666716337204 Co
   0.8333333134651184    0.6666666269302368    0.1666666716337204 Co
   0.1666666716337204    0.3333333432674408    0.8333333134651184 Co
   0.1666666716337204    0.8333333134651184    0.8333333134651184 Co
   0.6666666269302368    0.8333333134651184    0.8333333134651184 Co
   0.0000000000000000    0.5000000000000000    0.5000000000000000 Co
   0.5000000000000000    0.5000000000000000    0.5000000000000000 Co
   0.5000000000000000    0.0000000000000000    0.5000000000000000 Co
   0.2901916503906250    0.2901916503906250    0.0000000000000000 Co
   0.7098083496093750    0.0000000000000000    0.0000000000000000 Co
   0.0000000000000000    0.7098083496093750    0.0000000000000000 Co
   0.7098083496093750    0.7098083496093750    0.0000000000000000 Co
   0.2901916503906250    0.0000000000000000    0.0000000000000000 Co
   0.0000000000000000    0.2901916503906250    0.0000000000000000 Co
   0.9568583369255066    0.6235250234603882    0.3333333432674408 Co
   0.3764750361442566    0.3333333432674408    0.3333333432674408 Co
   0.6666666865348816    0.0431416928768158    0.3333333432674408 Co
   0.3764750361442566    0.0431416928768158    0.3333333432674408 Co
   0.9568583369255066    0.3333333432674408    0.3333333432674408 Co
   0.6666666865348816    0.6235250234603882    0.3333333432674408 Co
   0.6235250234603882    0.9568583369255066    0.6666666865348816 Co
   0.0431416928768158    0.6666666865348816    0.6666666865348816 Co
   0.3333333432674408    0.3764750361442566    0.6666666865348816 Co
   0.0431416928768158    0.3764750361442566    0.6666666865348816 Co
   0.6235250234603882    0.6666666865348816    0.6666666865348816 Co
   0.3333333432674408    0.9568583369255066    0.6666666865348816 Co
   0.1651611328125000    0.3303222656250000    0.1830139160156250 Co
   0.6696777343750000    0.8348388671875000    0.1830139160156250 Co
   0.1651611328125000    0.8348388671875000    0.1830139160156250 Co
   0.3303222656250000    0.1651611328125000    0.8169860839843750 Co
   0.8348388671875000    0.6696777343750000    0.8169860839843750 Co
   0.8348388671875000    0.1651611328125000    0.8169860839843750 Co
   0.8318278193473816    0.6636556386947632    0.5163472890853882 Co
   0.3363444209098816    0.1681722104549408    0.5163472890853882 Co
   0.8318278193473816    0.1681722104549408    0.5163472890853882 Co
   0.9969889521598816    0.4984944760799408    0.1503194272518158 Co
   0.5015055537223816    0.0030110776424408    0.1503194272518158 Co
   0.5015055537223816    0.4984944760799408    0.1503194272518158 Co
   0.4984944760799408    0.9969889521598816    0.8496806025505066 Co
   0.0030110776424408    0.5015055537223816    0.8496806025505066 Co
   0.4984944760799408    0.5015055537223816    0.8496806025505066 Co
   0.6636556386947632    0.8318278193473816    0.4836527705192566 Co
   0.1681722104549408    0.3363444209098816    0.4836527705192566 Co
   0.1681722104549408    0.8318278193473816    0.4836527705192566 Co
