Sr1 Pt5
1.0
   5.7400498267514992    0.0000000000000000   -0.0003752879295684
  -2.8696992732074453    4.9712169631733616   -0.0003752879295684
   0.0000000000000000    0.0000000000000000    4.4169530868530273
Sr Pt
1 5
direct
   0.0000000000000000    0.0000000000000000    0.0000000000000000 Sr
   0.6666666865348816    0.3333333432674408    0.0000000000000000 Pt
   0.3333333134651184    0.6666666269302368    0.0000000000000000 Pt
   0.5000000000000000    0.0000000000000000    0.5000000000000000 Pt
   0.0000000000000000    0.5000000000000000    0.5000000000000000 Pt
   0.5000000000000000    0.5000000000000000    0.5000000000000000 Pt
