Rb3 Tl1 O1
1.0
   5.3077525979086078    0.0000000000000000   -0.0003470240752697
  -0.0003470467646554    5.3077525865628026   -0.0003470240752697
   0.0000000000000000    0.0000000000000000    5.3077526092529297
Tl O Rb
1 1 3
direct
   0.0000000000000000    0.0000000000000000    0.0000000000000000 Tl
   0.5000000000000000    0.5000000000000000    0.5000000000000000 O
   0.5000000000000000    0.5000000000000000    0.0000000000000000 Rb
   0.0000000000000000    0.5000000000000000    0.5000000000000000 Rb
   0.5000000000000000    0.0000000000000000    0.5000000000000000 Rb
