Ho2 Er4 Si4
1.0
   4.1811528116507315    0.0000000000000000   -0.0002733662998151
  -0.0002691012596192    4.1156496825707913   -0.0002690836661912
   0.0000000000000000    0.0000000000000000   15.2244501113891602
Si Ho Er
4 2 4
direct
   0.5000000000000000    0.5000000000000000    0.8859252929687500 Si
   0.0000000000000000    0.0000000000000000    0.3859252929687500 Si
   0.5000000000000000    0.0000000000000000    0.2754516601562500 Si
   0.0000000000000000    0.5000000000000000    0.7754516601562500 Si
   0.0000000000000000    0.5000000000000000    0.2454528808593750 Ho
   0.5000000000000000    0.0000000000000000    0.7454528808593750 Ho
   0.5000000000000000    0.0000000000000000    0.0856781005859375 Er
   0.0000000000000000    0.5000000000000000    0.5856781005859375 Er
   0.5000000000000000    0.0000000000000000    0.4943847656250000 Er
   0.0000000000000000    0.5000000000000000    0.9943847656250000 Er
