Sr4 La4 Mn2 O20
1.0
   3.6571516912496889    0.0000000000000000   -0.0002391067896188
  -0.0002391224230765    3.6571516834321933   -0.0002391067896188
   0.0000000000000000    0.0000000000000000   25.2328510284423828
Mn O Sr La O
2 12 4 4 8
direct
   0.0000000000000000    0.0000000000000000    0.0000000000000000 Mn
   0.5000000000000000    0.5000000000000000    0.5000000000000000 Mn
   0.0000000000000000    0.5000000000000000    0.0000000000000000 O
   0.5000000000000000    0.0000000000000000    0.0000000000000000 O
   0.5000000000000000    0.0000000000000000    0.5000000000000000 O
   0.0000000000000000    0.5000000000000000    0.5000000000000000 O
   0.0000000000000000    0.5000000000000000    0.2500000000000000 O
   0.5000000000000000    0.0000000000000000    0.2500000000000000 O
   0.0000000000000000    0.5000000000000000    0.7500000000000000 O
   0.5000000000000000    0.0000000000000000    0.7500000000000000 O
   0.0000000000000000    0.0000000000000000    0.0718688964843750 O
   0.0000000000000000    0.0000000000000000    0.9281311035156250 O
   0.5000000000000000    0.5000000000000000    0.5718688964843750 O
   0.5000000000000000    0.5000000000000000    0.4281311035156250 O
   0.0000000000000000    0.0000000000000000    0.5909423828125000 Sr
   0.0000000000000000    0.0000000000000000    0.4090576171875000 Sr
   0.5000000000000000    0.5000000000000000    0.0909423828125000 Sr
   0.5000000000000000    0.5000000000000000    0.9090576171875000 Sr
   0.5000000000000000    0.5000000000000000    0.3053436279296875 La
   0.5000000000000000    0.5000000000000000    0.6946563720703125 La
   0.0000000000000000    0.0000000000000000    0.8053436279296875 La
   0.0000000000000000    0.0000000000000000    0.1946563720703125 La
   0.0000000000000000    0.5000000000000000    0.6535034179687500 O
   0.5000000000000000    0.0000000000000000    0.6535034179687500 O
   0.0000000000000000    0.5000000000000000    0.3464965820312500 O
   0.5000000000000000    0.0000000000000000    0.3464965820312500 O
   0.5000000000000000    0.0000000000000000    0.1535034179687500 O
   0.0000000000000000    0.5000000000000000    0.1535034179687500 O
   0.5000000000000000    0.0000000000000000    0.8464965820312500 O
   0.0000000000000000    0.5000000000000000    0.8464965820312500 O
