U4 Ru8 Au4
1.0
   6.7880482528563268    0.0000000000000000   -0.0004438067005537
  -0.0004438357178529    6.7880482383462546   -0.0004438067005537
   0.0000000000000000    0.0000000000000000    6.7880482673645020
U Au Ru
4 4 8
direct
   0.0000000000000000    0.0000000000000000    0.0000000000000000 U
   0.0000000000000000    0.5000000000000000    0.5000000000000000 U
   0.5000000000000000    0.0000000000000000    0.5000000000000000 U
   0.5000000000000000    0.5000000000000000    0.0000000000000000 U
   0.5000000000000000    0.0000000000000000    0.0000000000000000 Au
   0.0000000000000000    0.5000000000000000    0.0000000000000000 Au
   0.0000000000000000    0.0000000000000000    0.5000000000000000 Au
   0.5000000000000000    0.5000000000000000    0.5000000000000000 Au
   0.2500000000000000    0.2500000000000000    0.2500000000000000 Ru
   0.7500000000000000    0.7500000000000000    0.2500000000000000 Ru
   0.7500000000000000    0.2500000000000000    0.7500000000000000 Ru
   0.2500000000000000    0.7500000000000000    0.7500000000000000 Ru
   0.2500000000000000    0.2500000000000000    0.7500000000000000 Ru
   0.7500000000000000    0.7500000000000000    0.7500000000000000 Ru
   0.2500000000000000    0.7500000000000000    0.2500000000000000 Ru
   0.7500000000000000    0.2500000000000000    0.2500000000000000 Ru
