Yb6 Eu2
1.0
   7.6395487622058385    0.0000000000000000   -0.0004994783188890
  -3.8193409799966958    6.6162935068389039   -0.0004994783188890
   0.0000000000000000    0.0000000000000000    5.9234528541564941
Eu Yb
2 6
direct
   0.6666666865348816    0.3333333432674408    0.2500000000000000 Eu
   0.3333333134651184    0.6666666269302368    0.7500000000000000 Eu
   0.4630126953125000    0.5369873046875000    0.2500000000000000 Yb
   0.4630126953125000    0.9260253906250000    0.2500000000000000 Yb
   0.0739746093750000    0.5369873046875000    0.2500000000000000 Yb
   0.5369873046875000    0.4630126953125000    0.7500000000000000 Yb
   0.5369873046875000    0.0739746093750000    0.7500000000000000 Yb
   0.9260253906250000    0.4630126953125000    0.7500000000000000 Yb
