Eu1 Mg2 Sb2
1.0
   4.9147496118406186    0.0000000000000000   -0.0003213293023309
  -2.4570959860600157    4.2564589816389953   -0.0003213293023309
   0.0000000000000000    0.0000000000000000    7.2989468574523926
Eu Mg Sb
1 2 2
direct
   0.0000000000000000    0.0000000000000000    0.0000000000000000 Eu
   0.6666666865348816    0.3333333432674408    0.3515625000000000 Mg
   0.3333333432674408    0.6666666865348816    0.6484375000000000 Mg
   0.6666666865348816    0.3333333432674408    0.7575836181640625 Sb
   0.3333333432674408    0.6666666865348816    0.2424163818359375 Sb
