Nd4 Gd2 Dy2
1.0
   5.1505498776025087    0.0000000000000000   -0.0003367460663313
  -0.0003367680837126    5.1505498665927387   -0.0003367460663313
   0.0000000000000000    0.0000000000000000   10.2595500946044922
Dy Gd Nd
2 2 4
direct
   0.0000000000000000    0.0000000000000000    0.0000000000000000 Dy
   0.5000000000000000    0.5000000000000000    0.5000000000000000 Dy
   0.5000000000000000    0.5000000000000000    0.0000000000000000 Gd
   0.0000000000000000    0.0000000000000000    0.5000000000000000 Gd
   0.0000000000000000    0.5000000000000000    0.2500000000000000 Nd
   0.5000000000000000    0.0000000000000000    0.2500000000000000 Nd
   0.0000000000000000    0.5000000000000000    0.7500000000000000 Nd
   0.5000000000000000    0.0000000000000000    0.7500000000000000 Nd
