Pu3 Si1
1.0
   4.6658511062080414    0.0000000000000000   -0.0003050561674852
  -0.0003050761128941    4.6658510962343591   -0.0003050561674852
   0.0000000000000000    0.0000000000000000    4.6658511161804199
Si Pu
1 3
direct
   0.0000000000000000    0.0000000000000000    0.0000000000000000 Si
   0.5000000000000000    0.5000000000000000    0.0000000000000000 Pu
   0.0000000000000000    0.5000000000000000    0.5000000000000000 Pu
   0.5000000000000000    0.0000000000000000    0.5000000000000000 Pu
