Sr4 Ca8 Si12
1.0
   7.1286496963727402    0.0000000000000000   -0.0004660754289452
  -0.0004763843337542    7.2858485864074147   -0.0004763531884763
   0.0000000000000000    0.0000000000000000    9.8272533416748047
Sr Si Ca
4 12 8
direct
   0.0000000000000000    0.0000000000000000    0.2500000000000000 Sr
   0.5000000000000000    0.5000000000000000    0.7500000000000000 Sr
   0.0000000000000000    0.0000000000000000    0.7500000000000000 Sr
   0.5000000000000000    0.5000000000000000    0.2500000000000000 Sr
   0.0000000000000000    0.5000000000000000    0.2500000000000000 Si
   0.5000000000000000    0.0000000000000000    0.7500000000000000 Si
   0.0000000000000000    0.5000000000000000    0.7500000000000000 Si
   0.5000000000000000    0.0000000000000000    0.2500000000000000 Si
   0.6931152343750000    0.4995117187500000    0.5000000000000000 Si
   0.3068847656250000    0.5004882812500000    0.5000000000000000 Si
   0.8068847656250000    0.9995117187500000    0.5000000000000000 Si
   0.1931152343750000    0.0004882812500000    0.5000000000000000 Si
   0.1931152343750000    0.9995117187500000    0.0000000000000000 Si
   0.8068847656250000    0.0004882812500000    0.0000000000000000 Si
   0.3068847656250000    0.4995117187500000    0.0000000000000000 Si
   0.6931152343750000    0.5004882812500000    0.0000000000000000 Si
   0.5035858154296875    0.8090820312500000    0.5000000000000000 Ca
   0.4964141845703125    0.1909179687500000    0.5000000000000000 Ca
   0.9964141845703125    0.3090820312500000    0.5000000000000000 Ca
   0.0035858154296875    0.6909179687500000    0.5000000000000000 Ca
   0.0035858154296875    0.3090820312500000    0.0000000000000000 Ca
   0.9964141845703125    0.6909179687500000    0.0000000000000000 Ca
   0.4964141845703125    0.8090820312500000    0.0000000000000000 Ca
   0.5035858154296875    0.1909179687500000    0.0000000000000000 Ca
