Li2 Mg8
1.0
   5.4780492665509781    0.0000000000000000   -0.0003581581744702
  -0.0003316289926647    5.0719523213049564   -0.0003316073112693
   0.0000000000000000    0.0000000000000000    7.6133522987365723
Li Mg
2 8
direct
   0.0000000000000000    0.5000000000000000    0.2008819580078125 Li
   0.5000000000000000    0.0000000000000000    0.7008819580078125 Li
   0.2579956054687500    0.5000000000000000    0.8673095703125000 Mg
   0.7420043945312500    0.5000000000000000    0.8673095703125000 Mg
   0.7579956054687500    0.0000000000000000    0.3673095703125000 Mg
   0.2420043945312500    0.0000000000000000    0.3673095703125000 Mg
   0.7442932128906250    0.5000000000000000    0.5212326049804688 Mg
   0.2557067871093750    0.5000000000000000    0.5212326049804688 Mg
   0.2442932128906250    0.0000000000000000    0.0212326049804688 Mg
   0.7557067871093750    0.0000000000000000    0.0212326049804688 Mg
