Rb8 Cr4 Br24
1.0
  10.6656512986153107    0.0000000000000000   -0.0006973267330713
  -0.0006973723262056   10.6656512758165078   -0.0006973267330713
   0.0000000000000000    0.0000000000000000   10.6656513214111328
Cr Rb Br
4 8 24
direct
   0.0000000000000000    0.0000000000000000    0.0000000000000000 Cr
   0.0000000000000000    0.5000000000000000    0.5000000000000000 Cr
   0.5000000000000000    0.0000000000000000    0.5000000000000000 Cr
   0.5000000000000000    0.5000000000000000    0.0000000000000000 Cr
   0.2500000000000000    0.2500000000000000    0.2500000000000000 Rb
   0.7500000000000000    0.7500000000000000    0.2500000000000000 Rb
   0.7500000000000000    0.2500000000000000    0.7500000000000000 Rb
   0.2500000000000000    0.7500000000000000    0.7500000000000000 Rb
   0.2500000000000000    0.2500000000000000    0.7500000000000000 Rb
   0.7500000000000000    0.7500000000000000    0.7500000000000000 Rb
   0.2500000000000000    0.7500000000000000    0.2500000000000000 Rb
   0.7500000000000000    0.2500000000000000    0.2500000000000000 Rb
   0.7604827880859375    0.0000000000000000    0.0000000000000000 Br
   0.2395172119140625    0.0000000000000000    0.0000000000000000 Br
   0.0000000000000000    0.7604827880859375    0.0000000000000000 Br
   0.0000000000000000    0.2395172119140625    0.0000000000000000 Br
   0.0000000000000000    0.0000000000000000    0.7604827880859375 Br
   0.0000000000000000    0.0000000000000000    0.2395172119140625 Br
   0.7604827880859375    0.5000000000000000    0.5000000000000000 Br
   0.2395172119140625    0.5000000000000000    0.5000000000000000 Br
   0.0000000000000000    0.2604827880859375    0.5000000000000000 Br
   0.0000000000000000    0.7395172119140625    0.5000000000000000 Br
   0.0000000000000000    0.5000000000000000    0.2604827880859375 Br
   0.0000000000000000    0.5000000000000000    0.7395172119140625 Br
   0.2604827880859375    0.0000000000000000    0.5000000000000000 Br
   0.7395172119140625    0.0000000000000000    0.5000000000000000 Br
   0.5000000000000000    0.7604827880859375    0.5000000000000000 Br
   0.5000000000000000    0.2395172119140625    0.5000000000000000 Br
   0.5000000000000000    0.0000000000000000    0.2604827880859375 Br
   0.5000000000000000    0.0000000000000000    0.7395172119140625 Br
   0.2604827880859375    0.5000000000000000    0.0000000000000000 Br
   0.7395172119140625    0.5000000000000000    0.0000000000000000 Br
   0.5000000000000000    0.2604827880859375    0.0000000000000000 Br
   0.5000000000000000    0.7395172119140625    0.0000000000000000 Br
   0.5000000000000000    0.5000000000000000    0.7604827880859375 Br
   0.5000000000000000    0.5000000000000000    0.2395172119140625 Br
