Cs8 Hg4 As4 Br24
1.0
  11.7005510080122939    0.0000000000000000   -0.0007649891020355
  -0.0007650391191210   11.7005509830012997   -0.0007649891020355
   0.0000000000000000    0.0000000000000000   11.7005510330200195
As Hg Cs Br
4 4 8 24
direct
   0.0000000000000000    0.0000000000000000    0.0000000000000000 As
   0.0000000000000000    0.5000000000000000    0.5000000000000000 As
   0.5000000000000000    0.0000000000000000    0.5000000000000000 As
   0.5000000000000000    0.5000000000000000    0.0000000000000000 As
   0.5000000000000000    0.0000000000000000    0.0000000000000000 Hg
   0.0000000000000000    0.5000000000000000    0.0000000000000000 Hg
   0.0000000000000000    0.0000000000000000    0.5000000000000000 Hg
   0.5000000000000000    0.5000000000000000    0.5000000000000000 Hg
   0.2500000000000000    0.2500000000000000    0.2500000000000000 Cs
   0.7500000000000000    0.7500000000000000    0.2500000000000000 Cs
   0.7500000000000000    0.2500000000000000    0.7500000000000000 Cs
   0.2500000000000000    0.7500000000000000    0.7500000000000000 Cs
   0.2500000000000000    0.2500000000000000    0.7500000000000000 Cs
   0.7500000000000000    0.7500000000000000    0.7500000000000000 Cs
   0.2500000000000000    0.7500000000000000    0.2500000000000000 Cs
   0.7500000000000000    0.2500000000000000    0.2500000000000000 Cs
   0.7632751464843750    0.0000000000000000    0.0000000000000000 Br
   0.2367248535156250    0.0000000000000000    0.0000000000000000 Br
   0.0000000000000000    0.7632751464843750    0.0000000000000000 Br
   0.0000000000000000    0.2367248535156250    0.0000000000000000 Br
   0.0000000000000000    0.0000000000000000    0.7632751464843750 Br
   0.0000000000000000    0.0000000000000000    0.2367248535156250 Br
   0.7632751464843750    0.5000000000000000    0.5000000000000000 Br
   0.2367248535156250    0.5000000000000000    0.5000000000000000 Br
   0.0000000000000000    0.2632751464843750    0.5000000000000000 Br
   0.0000000000000000    0.7367248535156250    0.5000000000000000 Br
   0.0000000000000000    0.5000000000000000    0.2632751464843750 Br
   0.0000000000000000    0.5000000000000000    0.7367248535156250 Br
   0.2632751464843750    0.0000000000000000    0.5000000000000000 Br
   0.7367248535156250    0.0000000000000000    0.5000000000000000 Br
   0.5000000000000000    0.7632751464843750    0.5000000000000000 Br
   0.5000000000000000    0.2367248535156250    0.5000000000000000 Br
   0.5000000000000000    0.0000000000000000    0.2632751464843750 Br
   0.5000000000000000    0.0000000000000000    0.7367248535156250 Br
   0.2632751464843750    0.5000000000000000    0.0000000000000000 Br
   0.7367248535156250    0.5000000000000000    0.0000000000000000 Br
   0.5000000000000000    0.2632751464843750    0.0000000000000000 Br
   0.5000000000000000    0.7367248535156250    0.0000000000000000 Br
   0.5000000000000000    0.5000000000000000    0.7632751464843750 Br
   0.5000000000000000    0.5000000000000000    0.2367248535156250 Br
