Th3 Ga1
1.0
   4.5479512117456746    0.0000000000000000   -0.0002973478010730
  -0.0002973672424877    4.5479512020240138   -0.0002973478010730
   0.0000000000000000    0.0000000000000000    4.5479512214660645
Ga Th
1 3
direct
   0.0000000000000000    0.0000000000000000    0.0000000000000000 Ga
   0.5000000000000000    0.5000000000000000    0.0000000000000000 Th
   0.0000000000000000    0.5000000000000000    0.5000000000000000 Th
   0.5000000000000000    0.0000000000000000    0.5000000000000000 Th
