Sr16 Ag4 Ge8 Pt4
1.0
  12.4133259262413720    0.0000000000000000   -2.6648706607310571
  -0.0005491939417875    6.7880482306397800   -0.0004438067005537
   0.0000000000000000    0.0000000000000000   12.5258474349975586
Ge Sr Ag Pt
8 16 4 4
direct
   0.4171752929687500    0.0000000000000000    0.3142700195312500 Ge
   0.5828247070312500    0.0000000000000000    0.6857299804687500 Ge
   0.9171752929687500    0.5000000000000000    0.3142700195312500 Ge
   0.0828247070312500    0.5000000000000000    0.6857299804687500 Ge
   0.1110687255859375    0.0000000000000000    0.0522155761718750 Ge
   0.8889312744140625    0.0000000000000000    0.9477844238281250 Ge
   0.6110687255859375    0.5000000000000000    0.0522155761718750 Ge
   0.3889312744140625    0.5000000000000000    0.9477844238281250 Ge
   0.3606262207031250    0.0000000000000000    0.0585937500000000 Sr
   0.6393737792968750    0.0000000000000000    0.9414062500000000 Sr
   0.8606262207031250    0.5000000000000000    0.0585937500000000 Sr
   0.1393737792968750    0.5000000000000000    0.9414062500000000 Sr
   0.9439506530761719    0.0000000000000000    0.2187500000000000 Sr
   0.0560493469238281    0.0000000000000000    0.7812500000000000 Sr
   0.4439506530761719    0.5000000000000000    0.2187500000000000 Sr
   0.5560493469238281    0.5000000000000000    0.7812500000000000 Sr
   0.6625061035156250    0.0000000000000000    0.2343444824218750 Sr
   0.3374938964843750    0.0000000000000000    0.7656555175781250 Sr
   0.1625061035156250    0.5000000000000000    0.2343444824218750 Sr
   0.8374938964843750    0.5000000000000000    0.7656555175781250 Sr
   0.8567504882812500    0.0000000000000000    0.5216674804687500 Sr
   0.1432495117187500    0.0000000000000000    0.4783325195312500 Sr
   0.3567504882812500    0.5000000000000000    0.5216674804687500 Sr
   0.6432495117187500    0.5000000000000000    0.4783325195312500 Sr
   0.6041307449340820    0.0000000000000000    0.4708251953125000 Ag
   0.3958692550659180    0.0000000000000000    0.5291748046875000 Ag
   0.1041307449340820    0.5000000000000000    0.4708251953125000 Ag
   0.8958692550659180    0.5000000000000000    0.5291748046875000 Ag
   0.7796630859375000    0.0000000000000000    0.7471313476562500 Pt
   0.2203369140625000    0.0000000000000000    0.2528686523437500 Pt
   0.2796630859375000    0.5000000000000000    0.7471313476562500 Pt
   0.7203369140625000    0.5000000000000000    0.2528686523437500 Pt
