Al4 Zn4 I8
1.0
   8.7915895223245606    0.0000000000000000   -8.5879697717973702
  -0.0013203887492097    8.5041521772931858   -0.0005560066198285
   0.0000000000000000    0.0000000000000000    9.3949508666992188
Al Zn I
4 4 8
direct
   0.0000000000000000    0.1260986328125000    0.5000000000000000 Al
   0.0000000000000000    0.8739013671875000    0.5000000000000000 Al
   0.5000000000000000    0.6260986328125000    0.5000000000000000 Al
   0.5000000000000000    0.3739013671875000    0.5000000000000000 Al
   0.0000000000000000    0.6232604980468750    0.5000000000000000 Zn
   0.0000000000000000    0.3767395019531250    0.5000000000000000 Zn
   0.5000000000000000    0.1232604980468750    0.5000000000000000 Zn
   0.5000000000000000    0.8767395019531250    0.5000000000000000 Zn
   0.4902038574218750    0.7475585937500000    0.7518615722656250 I
   0.5097961425781250    0.7475585937500000    0.2481384277343750 I
   0.5097961425781250    0.2524414062500000    0.2481384277343750 I
   0.4902038574218750    0.2524414062500000    0.7518615722656250 I
   0.9902038574218750    0.2475585937500000    0.7518615722656250 I
   0.0097961425781250    0.2475585937500000    0.2481384277343750 I
   0.0097961425781250    0.7524414062500000    0.2481384277343750 I
   0.9902038574218750    0.7524414062500000    0.7518615722656250 I
