Na6 V1 S2
1.0
   5.4511872801833263    0.0000000000000000   -1.0077352992212183
  -3.0614231207236031    6.4362023822444234   -2.1452141636088093
   0.0000000000000000    0.0000000000000000    7.6002502441406250
Na S V
6 2 1
direct
   0.6075439453125000    0.5568847656250000    0.1298828125000000 Na
   0.2839965820312500    0.6860351562500000    0.7780761718750000 Na
   0.5036621093750000    0.1699218750000000    0.7451171875000000 Na
   0.7031250000000000    0.4316406250000000    0.5156250000000000 Na
   0.0993652343750000    0.2612304687500000    0.3476562500000000 Na
   0.5284423828125000    0.0754394531250000    0.1362304687500000 Na
   0.0585937500000000    0.3015747070312500    0.8586425781250000 S
   0.0177001953125000    0.7725830078125000    0.4792480468750000 S
   0.8703308105468750    0.0089111328125000    0.5798339843750000 V
