Pr6 Y2 In3 Pt6
1.0
   8.1504478280389367    0.0000000000000000   -0.0005328812088328
  -4.0747615289735917    7.0587618092397353   -0.0005328812088328
   0.0000000000000000    0.0000000000000000    7.7967514991760254
In Y In Pr Pt
1 2 2 6 6
direct
   0.0000000000000000    0.0000000000000000    0.5000000000000000 In
   0.6666666865348816    0.3333333432674408    0.0000000000000000 Y
   0.3333333134651184    0.6666666269302368    0.0000000000000000 Y
   0.6666666865348816    0.3333333432674408    0.5000000000000000 In
   0.3333333134651184    0.6666666269302368    0.5000000000000000 In
   0.3193359375000000    0.0000000000000000    0.7251892089843750 Pr
   0.0000000000000000    0.3193359375000000    0.7251892089843750 Pr
   0.6806640625000000    0.6806640625000000    0.7251892089843750 Pr
   0.0000000000000000    0.6806640625000000    0.2748107910156250 Pr
   0.6806640625000000    0.0000000000000000    0.2748107910156250 Pr
   0.3193359375000000    0.3193359375000000    0.2748107910156250 Pr
   0.6752471923828125    0.6752471923828125    0.1143188476562500 Pt
   0.3247528076171875    0.0000000000000000    0.1143188476562500 Pt
   0.0000000000000000    0.3247528076171875    0.1143188476562500 Pt
   0.3247528076171875    0.3247528076171875    0.8856811523437500 Pt
   0.0000000000000000    0.6752471923828125    0.8856811523437500 Pt
   0.6752471923828125    0.0000000000000000    0.8856811523437500 Pt
