Tl4 Sn4 Se8
1.0
   6.2509527072818551    0.0000000000000000   -0.0004086910689194
  -0.0004087177902623    6.2509526939198734   -0.0004086910689194
   0.0000000000000000    0.0000000000000000   12.6175470352172852
Tl Sn Se
4 4 8
direct
   0.0000000000000000    0.0000000000000000    0.0000000000000000 Tl
   0.5000000000000000    0.0000000000000000    0.7500000000000000 Tl
   0.5000000000000000    0.5000000000000000    0.5000000000000000 Tl
   0.0000000000000000    0.5000000000000000    0.2500000000000000 Tl
   0.5000000000000000    0.5000000000000000    0.0000000000000000 Sn
   0.0000000000000000    0.5000000000000000    0.7500000000000000 Sn
   0.0000000000000000    0.0000000000000000    0.5000000000000000 Sn
   0.5000000000000000    0.0000000000000000    0.2500000000000000 Sn
   0.7136230468750000    0.2500000000000000    0.1250000000000000 Se
   0.2863769531250000    0.7500000000000000    0.1250000000000000 Se
   0.2500000000000000    0.2863769531250000    0.8750000000000000 Se
   0.7500000000000000    0.7136230468750000    0.8750000000000000 Se
   0.7863769531250000    0.2500000000000000    0.6250000000000000 Se
   0.2136230468750000    0.7500000000000000    0.6250000000000000 Se
   0.7500000000000000    0.7863769531250000    0.3750000000000000 Se
   0.2500000000000000    0.2136230468750000    0.3750000000000000 Se
