Hf8 Fe4 Ni4
1.0
   6.5784520962303246    0.0000000000000000   -0.0004301031770583
  -0.0004301312983836    6.5784520821682833   -0.0004301031770583
   0.0000000000000000    0.0000000000000000    6.5784521102905273
Ni Fe Hf
4 4 8
direct
   0.0000000000000000    0.0000000000000000    0.0000000000000000 Ni
   0.0000000000000000    0.5000000000000000    0.5000000000000000 Ni
   0.5000000000000000    0.0000000000000000    0.5000000000000000 Ni
   0.5000000000000000    0.5000000000000000    0.0000000000000000 Ni
   0.5000000000000000    0.0000000000000000    0.0000000000000000 Fe
   0.0000000000000000    0.5000000000000000    0.0000000000000000 Fe
   0.0000000000000000    0.0000000000000000    0.5000000000000000 Fe
   0.5000000000000000    0.5000000000000000    0.5000000000000000 Fe
   0.2500000000000000    0.2500000000000000    0.2500000000000000 Hf
   0.7500000000000000    0.7500000000000000    0.2500000000000000 Hf
   0.7500000000000000    0.2500000000000000    0.7500000000000000 Hf
   0.2500000000000000    0.7500000000000000    0.7500000000000000 Hf
   0.2500000000000000    0.2500000000000000    0.7500000000000000 Hf
   0.7500000000000000    0.7500000000000000    0.7500000000000000 Hf
   0.2500000000000000    0.7500000000000000    0.2500000000000000 Hf
   0.7500000000000000    0.2500000000000000    0.2500000000000000 Hf
