Ni4 Sb4
1.0
   6.4368710139357583    0.0000000000000000   -3.4411214418947491
  -0.0003846643092282    3.5261494828194668   -0.0002305417873661
   0.0000000000000000    0.0000000000000000    7.0369501113891602
Ni Sb
4 4
direct
   0.1868896484375000    0.0000000000000000    0.5955810546875000 Ni
   0.8131103515625000    0.0000000000000000    0.4044189453125000 Ni
   0.6868896484375000    0.5000000000000000    0.5955810546875000 Ni
   0.3131103515625000    0.5000000000000000    0.4044189453125000 Ni
   0.5938110351562500    0.0000000000000000    0.8287193775177002 Sb
   0.4061889648437500    0.0000000000000000    0.1712806224822998 Sb
   0.0938110351562500    0.5000000000000000    0.8287193775177002 Sb
   0.9061889648437500    0.5000000000000000    0.1712806224822998 Sb
