Sr2 Fe2 Bi2 O9
1.0
   5.4462051567396932    0.0000000000000000    1.6844498611226291
   2.7317593709801695    4.9741315733423779    0.6660198552676481
   0.0000000000000000    0.0000000000000000    7.5478491783142090
O Fe Sr Bi
9 2 2 2
direct
   0.9255371093750000    0.9956054687500000    0.4558105468750000 O
   0.0280761718750000    0.4378662109375000    0.7007446289062500 O
   0.1845703125000000    0.8288269042968750    0.8186035156250000 O
   0.1972656250000000    0.6543197631835938    0.1545410156250000 O
   0.4221191406250000    0.5658874511718750    0.4530944824218750 O
   0.1821289062500000    0.1501464843750000    0.1209106445312500 O
   0.4218750000000000    0.0010986328125000    0.3771972656250000 O
   0.6828613281250000    0.6548461914062500    0.0827636718750000 O
   0.5410156250000000    0.1259765625000000    0.8119506835937500 O
   0.0463867187500000    0.7985839843750000    0.6483764648437500 Fe
   0.3289794921875000    0.8420410156250000    0.2292480468750000 Fe
   0.7680664062500000    0.0869140625000000    0.0805664062500000 Sr
   0.8493347167968750    0.5656738281250000    0.3977050781250000 Sr
   0.4760742187500000    0.1947937011718750    0.5574951171875000 Bi
   0.1455078125000000    0.4451599121093750    0.9637451171875000 Bi
