Mn4 P4
1.0
   5.1155779393199650    0.0000000000000000   -2.2683809616036177
  -0.0003030672547048    3.0152466080395568   -0.0001971386480151
   0.0000000000000000    0.0000000000000000    5.6090478897094727
P Mn
4 4
direct
   0.9277648925781250    0.2490234375000000    0.6377563476562500 P
   0.9277648925781250    0.7509765625000000    0.1377563476562500 P
   0.4277648925781250    0.7490234375000000    0.6377563476562500 P
   0.4277648925781250    0.2509765625000000    0.1377563476562500 P
   0.6756896972656250    0.7532958984375000    0.3850708007812500 Mn
   0.6756896972656250    0.2467041015625000    0.8850708007812500 Mn
   0.1756896972656250    0.2532958984375000    0.3850708007812500 Mn
   0.1756896972656250    0.7467041015625000    0.8850708007812500 Mn
