U8 Ni16 Ge4
1.0
   8.9495515632084430    0.0000000000000000   -0.0005851270943797
  -0.0005851653515938    8.9495515440779609   -0.0005851270943797
   0.0000000000000000    0.0000000000000000    4.6265487670898438
Ge U Ni
4 8 16
direct
   0.0000000000000000    0.0000000000000000    0.2500000000000000 Ge
   0.0000000000000000    0.0000000000000000    0.7500000000000000 Ge
   0.5000000000000000    0.5000000000000000    0.7500000000000000 Ge
   0.5000000000000000    0.5000000000000000    0.2500000000000000 Ge
   0.1292877197265625    0.3707122802734375    0.0000000000000000 U
   0.8707122802734375    0.6292877197265625    0.0000000000000000 U
   0.6292877197265625    0.1292877197265625    0.0000000000000000 U
   0.3707122802734375    0.8707122802734375    0.0000000000000000 U
   0.8707122802734375    0.3707122802734375    0.5000000000000000 U
   0.1292877197265625    0.6292877197265625    0.5000000000000000 U
   0.3707122802734375    0.1292877197265625    0.5000000000000000 U
   0.6292877197265625    0.8707122802734375    0.5000000000000000 U
   0.2911376953125000    0.6072998046875000    0.0000000000000000 Ni
   0.7088623046875000    0.3927001953125000    0.0000000000000000 Ni
   0.3927001953125000    0.2911376953125000    0.0000000000000000 Ni
   0.6072998046875000    0.7088623046875000    0.0000000000000000 Ni
   0.7088623046875000    0.6072998046875000    0.5000000000000000 Ni
   0.2911376953125000    0.3927001953125000    0.5000000000000000 Ni
   0.6072998046875000    0.2911376953125000    0.5000000000000000 Ni
   0.3927001953125000    0.7088623046875000    0.5000000000000000 Ni
   0.7911376953125000    0.1072998046875000    0.5000000000000000 Ni
   0.2088623046875000    0.8927001953125000    0.5000000000000000 Ni
   0.8927001953125000    0.7911376953125000    0.5000000000000000 Ni
   0.1072998046875000    0.2088623046875000    0.5000000000000000 Ni
   0.2088623046875000    0.1072998046875000    0.0000000000000000 Ni
   0.7911376953125000    0.8927001953125000    0.0000000000000000 Ni
   0.1072998046875000    0.7911376953125000    0.0000000000000000 Ni
   0.8927001953125000    0.2088623046875000    0.0000000000000000 Ni
