K8 Si4 Cu4 F24
1.0
   8.4910497483925074    0.0000000000000000   -0.0005551499684001
  -0.0005551862656275    8.4910497302421142   -0.0005551499684001
   0.0000000000000000    0.0000000000000000    8.4910497665405273
Si Cu K F
4 4 8 24
direct
   0.0000000000000000    0.0000000000000000    0.0000000000000000 Si
   0.0000000000000000    0.5000000000000000    0.5000000000000000 Si
   0.5000000000000000    0.0000000000000000    0.5000000000000000 Si
   0.5000000000000000    0.5000000000000000    0.0000000000000000 Si
   0.5000000000000000    0.0000000000000000    0.0000000000000000 Cu
   0.0000000000000000    0.5000000000000000    0.0000000000000000 Cu
   0.0000000000000000    0.0000000000000000    0.5000000000000000 Cu
   0.5000000000000000    0.5000000000000000    0.5000000000000000 Cu
   0.2500000000000000    0.2500000000000000    0.2500000000000000 K
   0.7500000000000000    0.7500000000000000    0.2500000000000000 K
   0.7500000000000000    0.2500000000000000    0.7500000000000000 K
   0.2500000000000000    0.7500000000000000    0.7500000000000000 K
   0.2500000000000000    0.2500000000000000    0.7500000000000000 K
   0.7500000000000000    0.7500000000000000    0.7500000000000000 K
   0.2500000000000000    0.7500000000000000    0.2500000000000000 K
   0.7500000000000000    0.2500000000000000    0.2500000000000000 K
   0.2147674560546875    0.0000000000000000    0.0000000000000000 F
   0.7852325439453125    0.0000000000000000    0.0000000000000000 F
   0.0000000000000000    0.2147674560546875    0.0000000000000000 F
   0.0000000000000000    0.7852325439453125    0.0000000000000000 F
   0.0000000000000000    0.0000000000000000    0.2147674560546875 F
   0.0000000000000000    0.0000000000000000    0.7852325439453125 F
   0.2147674560546875    0.5000000000000000    0.5000000000000000 F
   0.7852325439453125    0.5000000000000000    0.5000000000000000 F
   0.0000000000000000    0.7147674560546875    0.5000000000000000 F
   0.0000000000000000    0.2852325439453125    0.5000000000000000 F
   0.0000000000000000    0.5000000000000000    0.7147674560546875 F
   0.0000000000000000    0.5000000000000000    0.2852325439453125 F
   0.7147674560546875    0.0000000000000000    0.5000000000000000 F
   0.2852325439453125    0.0000000000000000    0.5000000000000000 F
   0.5000000000000000    0.2147674560546875    0.5000000000000000 F
   0.5000000000000000    0.7852325439453125    0.5000000000000000 F
   0.5000000000000000    0.0000000000000000    0.7147674560546875 F
   0.5000000000000000    0.0000000000000000    0.2852325439453125 F
   0.7147674560546875    0.5000000000000000    0.0000000000000000 F
   0.2852325439453125    0.5000000000000000    0.0000000000000000 F
   0.5000000000000000    0.7147674560546875    0.0000000000000000 F
   0.5000000000000000    0.2852325439453125    0.0000000000000000 F
   0.5000000000000000    0.5000000000000000    0.2147674560546875 F
   0.5000000000000000    0.5000000000000000    0.7852325439453125 F
