Yb1 Cu2 P2
1.0
   3.9977497969060019    0.0000000000000000   -0.0002613752997789
  -1.9986481011331179    3.4622838136841070   -0.0002613752997789
   0.0000000000000000    0.0000000000000000    6.4867486953735352
Yb P Cu
1 2 2
direct
   0.0000000000000000    0.0000000000000000    0.0000000000000000 Yb
   0.6666666865348816    0.3333333432674408    0.7302246093750000 P
   0.3333333432674408    0.6666666865348816    0.2697753906250000 P
   0.6666666865348816    0.3333333432674408    0.3488769531250000 Cu
   0.3333333432674408    0.6666666865348816    0.6511230468750000 Cu
