Mn6 O8
1.0
   5.2679416514983517    0.0000000000000000   -0.0734443389556943
  -1.6432651301976140    6.3219402833883809   -2.5462345281754377
   0.0000000000000000    0.0000000000000000    7.3120489120483398
Mn O Mn
2 8 4
direct
   0.0000000000000000    0.0000000000000000    0.0000000000000000 Mn
   0.5000000000000000    0.5000000000000000    0.5000000000000000 Mn
   0.7850036621093750    0.3796386718750000    0.5676574707031250 O
   0.2149963378906250    0.6203613281250000    0.4323425292968750 O
   0.7250366210937500    0.9764404296875000    0.1970825195312500 O
   0.2749633789062500    0.0235595703125000    0.8029174804687500 O
   0.2719726562500000    0.2199096679687500    0.2454833984375000 O
   0.7280273437500000    0.7800903320312500    0.7545166015625000 O
   0.8820800781250000    0.2460937500000000    0.0078125000000000 O
   0.1179199218750000    0.7539062500000000    0.9921875000000000 O
   0.6537017822265625    0.0681762695312500    0.7401733398437500 Mn
   0.3462982177734375    0.9318237304687500    0.2598266601562500 Mn
   0.0781555175781250    0.7001342773437500    0.7073974609375000 Mn
   0.9218444824218750    0.2998657226562500    0.2926025390625000 Mn
