Sr4 Fe2 Sn16 O2
1.0
   4.6658511062080414    0.0000000000000000   -0.0003050561674852
  -0.0005457642297675    8.3469485879748309   -0.0005457285485383
   0.0000000000000000    0.0000000000000000   18.8793487548828125
O Fe Sr Sn
2 2 4 16
direct
   0.0000000000000000    0.0000000000000000    0.1005859375000000 O
   0.5000000000000000    0.5000000000000000    0.6005859375000000 O
   0.5000000000000000    0.0000000000000000    0.3658447265625000 Fe
   0.0000000000000000    0.5000000000000000    0.8658447265625000 Fe
   0.5000000000000000    0.0000000000000000    0.0208435058593750 Sr
   0.0000000000000000    0.5000000000000000    0.5208435058593750 Sr
   0.5000000000000000    0.0000000000000000    0.1963806152343750 Sr
   0.0000000000000000    0.5000000000000000    0.6963806152343750 Sr
   0.5000000000000000    0.0000000000000000    0.5150146484375000 Sn
   0.0000000000000000    0.5000000000000000    0.0150146484375000 Sn
   0.5000000000000000    0.0000000000000000    0.7290954589843750 Sn
   0.0000000000000000    0.5000000000000000    0.2290954589843750 Sn
   0.0000000000000000    0.7980651855468750    0.9059829711914062 Sn
   0.0000000000000000    0.2019348144531250    0.9059829711914062 Sn
   0.5000000000000000    0.2980651855468750    0.4059829711914062 Sn
   0.5000000000000000    0.7019348144531250    0.4059829711914062 Sn
   0.0000000000000000    0.8195190429687500    0.3053283691406250 Sn
   0.0000000000000000    0.1804809570312500    0.3053283691406250 Sn
   0.5000000000000000    0.3195190429687500    0.8053283691406250 Sn
   0.5000000000000000    0.6804809570312500    0.8053283691406250 Sn
   0.0000000000000000    0.1736450195312500    0.6043090820312500 Sn
   0.0000000000000000    0.8263549804687500    0.6043090820312500 Sn
   0.5000000000000000    0.6736450195312500    0.1043090820312500 Sn
   0.5000000000000000    0.3263549804687500    0.1043090820312500 Sn
