Dy1 Pa1 O4
1.0
   3.6833481709910618    0.0000000000000000   -0.0002408195313094
  -0.0002408352767508    3.6833481631175693   -0.0002408195313094
   0.0000000000000000    0.0000000000000000    5.5828514099121094
Dy Pa O
1 1 4
direct
   0.0000000000000000    0.0000000000000000    0.0000000000000000 Dy
   0.5000000000000000    0.5000000000000000    0.5000000000000000 Pa
   0.0000000000000000    0.5000000000000000    0.7338867187500000 O
   0.5000000000000000    0.0000000000000000    0.7338867187500000 O
   0.0000000000000000    0.5000000000000000    0.2661132812500000 O
   0.5000000000000000    0.0000000000000000    0.2661132812500000 O
