Tb6 Lu2
1.0
   5.8186511869045487    0.0000000000000000   -0.0003804269340376
  -0.0003804518073938    5.8186511744666509   -0.0003804269340376
   0.0000000000000000    0.0000000000000000    8.7530536651611328
Lu Tb
2 6
direct
   0.0000000000000000    0.0000000000000000    0.0000000000000000 Lu
   0.5000000000000000    0.5000000000000000    0.5000000000000000 Lu
   0.5000000000000000    0.5000000000000000    0.0000000000000000 Tb
   0.0000000000000000    0.0000000000000000    0.5000000000000000 Tb
   0.0000000000000000    0.5000000000000000    0.2500000000000000 Tb
   0.5000000000000000    0.0000000000000000    0.2500000000000000 Tb
   0.0000000000000000    0.5000000000000000    0.7500000000000000 Tb
   0.5000000000000000    0.0000000000000000    0.7500000000000000 Tb
