V4 O10
1.0
   5.3794744587061514    0.0000000000000000   -2.2517994055710737
  -3.2528453296889626    6.8148185144146778   -1.5313623484733121
   0.0000000000000000    0.0000000000000000    8.3338508605957031
O V
10 4
direct
   0.4710693359375000    0.8023071289062500    0.9923706054687500 O
   0.3493652343750000    0.5187988281250000    0.1905517578125000 O
   0.6973876953125000    0.9877166748046875    0.3677978515625000 O
   0.5002441406250000    0.7939300537109375    0.6746215820312500 O
   0.4909667968750000    0.2710113525390625    0.3444213867187500 O
   0.9858398437500000    0.0176696777343750    0.0029296875000000 O
   0.0467529296875000    0.4223861694335938    0.6070556640625000 O
   0.7224121093750000    0.5780639648437500    0.8829345703125000 O
   0.8957519531250000    0.3193054199218750    0.2205200195312500 O
   0.1500244140625000    0.7930145263671875    0.2201232910156250 O
   0.8156738281250000    0.2666015625000000    0.3973388671875000 V
   0.1608276367187500    0.2589111328125000    0.1774597167968750 V
   0.6516723632812500    0.7631835937500000    0.8704833984375000 V
   0.3784179687500000    0.7684936523437500    0.1883544921875000 V
