Cs8 Dy4 Tl4 I24
1.0
  12.7616481508249642    0.0000000000000000   -0.0008343642750421
  -0.0008344188280666   12.7616481235457773   -0.0008343642750421
   0.0000000000000000    0.0000000000000000   12.7616481781005859
Dy Tl Cs I
4 4 8 24
direct
   0.0000000000000000    0.0000000000000000    0.0000000000000000 Dy
   0.0000000000000000    0.5000000000000000    0.5000000000000000 Dy
   0.5000000000000000    0.0000000000000000    0.5000000000000000 Dy
   0.5000000000000000    0.5000000000000000    0.0000000000000000 Dy
   0.5000000000000000    0.0000000000000000    0.0000000000000000 Tl
   0.0000000000000000    0.5000000000000000    0.0000000000000000 Tl
   0.0000000000000000    0.0000000000000000    0.5000000000000000 Tl
   0.5000000000000000    0.5000000000000000    0.5000000000000000 Tl
   0.2500000000000000    0.2500000000000000    0.2500000000000000 Cs
   0.7500000000000000    0.7500000000000000    0.2500000000000000 Cs
   0.7500000000000000    0.2500000000000000    0.7500000000000000 Cs
   0.2500000000000000    0.7500000000000000    0.7500000000000000 Cs
   0.2500000000000000    0.2500000000000000    0.7500000000000000 Cs
   0.7500000000000000    0.7500000000000000    0.7500000000000000 Cs
   0.2500000000000000    0.7500000000000000    0.2500000000000000 Cs
   0.7500000000000000    0.2500000000000000    0.2500000000000000 Cs
   0.2377319335937500    0.0000000000000000    0.0000000000000000 I
   0.7622680664062500    0.0000000000000000    0.0000000000000000 I
   0.0000000000000000    0.2377319335937500    0.0000000000000000 I
   0.0000000000000000    0.7622680664062500    0.0000000000000000 I
   0.0000000000000000    0.0000000000000000    0.2377319335937500 I
   0.0000000000000000    0.0000000000000000    0.7622680664062500 I
   0.2377319335937500    0.5000000000000000    0.5000000000000000 I
   0.7622680664062500    0.5000000000000000    0.5000000000000000 I
   0.0000000000000000    0.7377319335937500    0.5000000000000000 I
   0.0000000000000000    0.2622680664062500    0.5000000000000000 I
   0.0000000000000000    0.5000000000000000    0.7377319335937500 I
   0.0000000000000000    0.5000000000000000    0.2622680664062500 I
   0.7377319335937500    0.0000000000000000    0.5000000000000000 I
   0.2622680664062500    0.0000000000000000    0.5000000000000000 I
   0.5000000000000000    0.2377319335937500    0.5000000000000000 I
   0.5000000000000000    0.7622680664062500    0.5000000000000000 I
   0.5000000000000000    0.0000000000000000    0.7377319335937500 I
   0.5000000000000000    0.0000000000000000    0.2622680664062500 I
   0.7377319335937500    0.5000000000000000    0.0000000000000000 I
   0.2622680664062500    0.5000000000000000    0.0000000000000000 I
   0.5000000000000000    0.7377319335937500    0.0000000000000000 I
   0.5000000000000000    0.2622680664062500    0.0000000000000000 I
   0.5000000000000000    0.5000000000000000    0.2377319335937500 I
   0.5000000000000000    0.5000000000000000    0.7622680664062500 I
