K2 Ca2 Te2 Mo2 O16
1.0
   5.7662505980272876    0.0000000000000000   -0.0003770009518420
  -0.0003770256011982    5.7662505857014006   -0.0003770009518420
   0.0000000000000000    0.0000000000000000   11.5040502548217773
Te Ca Mo K O
2 2 2 2 16
direct
   0.0000000000000000    0.0000000000000000    0.0000000000000000 Te
   0.5000000000000000    0.5000000000000000    0.5000000000000000 Te
   0.0000000000000000    0.0000000000000000    0.5000000000000000 Ca
   0.5000000000000000    0.5000000000000000    0.0000000000000000 Ca
   0.0000000000000000    0.5000000000000000    0.2500000000000000 Mo
   0.5000000000000000    0.0000000000000000    0.7500000000000000 Mo
   0.5000000000000000    0.0000000000000000    0.2500000000000000 K
   0.0000000000000000    0.5000000000000000    0.7500000000000000 K
   0.7334976196289062    0.6413154602050781    0.5801887512207031 O
   0.2665023803710938    0.3586845397949219    0.5801887512207031 O
   0.6413154602050781    0.2665023803710938    0.4198112487792969 O
   0.3586845397949219    0.7334976196289062    0.4198112487792969 O
   0.2334976196289062    0.1413154602050781    0.0801887512207031 O
   0.7665023803710938    0.8586845397949219    0.0801887512207031 O
   0.1413154602050781    0.7665023803710938    0.9198112487792969 O
   0.8586845397949219    0.2334976196289062    0.9198112487792969 O
   0.7335052490234375    0.1171875000000000    0.6667480468750000 O
   0.2664947509765625    0.8828125000000000    0.6667480468750000 O
   0.1171875000000000    0.2664947509765625    0.3332519531250000 O
   0.8828125000000000    0.7335052490234375    0.3332519531250000 O
   0.2335052490234375    0.6171875000000000    0.1667480468750000 O
   0.7664947509765625    0.3828125000000000    0.1667480468750000 O
   0.6171875000000000    0.7664947509765625    0.8332519531250000 O
   0.3828125000000000    0.2335052490234375    0.8332519531250000 O
