Fe3 Cu6 Sn9 S24
1.0
   7.3775482020053165    0.0000000000000000   -0.0004823485637908
  -3.6883555635141896    6.3893857850348814   -0.0004823485637908
   0.0000000000000000    0.0000000000000000   17.1108512878417969
Fe S Cu Sn S
3 6 6 9 18
direct
   0.3333333432674408    0.6666666865348816    0.1666666716337204 Fe
   0.6666666865348816    0.3333333432674408    0.8333333134651184 Fe
   0.0000000000000000    0.0000000000000000    0.5000000000000000 Fe
   0.6666666865348816    0.3333333432674408    0.5782318115234375 S
   0.3333333432674408    0.6666666865348816    0.4217681884765625 S
   0.3333333730697632    0.6666666865348816    0.9115651845932007 S
   0.0000000000000000    0.0000000000000000    0.7551015615463257 S
   0.0000000000000000    0.0000000000000000    0.2448985576629639 S
   0.6666666865348816    0.3333333730697632    0.0884348750114441 S
   0.0000000000000000    0.0000000000000000    0.1120605468750000 Cu
   0.0000000000000000    0.0000000000000000    0.8879394531250000 Cu
   0.6666666865348816    0.3333333432674408    0.4453938901424408 Cu
   0.6666666865348816    0.3333333432674408    0.2212727963924408 Cu
   0.3333333432674408    0.6666666865348816    0.7787272334098816 Cu
   0.3333333432674408    0.6666666865348816    0.5546061396598816 Cu
   0.5000000000000000    0.5000000000000000    0.0000000000000000 Sn
   0.5000000000000000    0.0000000000000000    0.0000000000000000 Sn
   0.0000000000000000    0.5000000000000000    0.0000000000000000 Sn
   0.1666667461395264    0.8333333730697632    0.3333333432674408 Sn
   0.1666666865348816    0.3333333432674408    0.3333333432674408 Sn
   0.6666666865348816    0.8333333730697632    0.3333333432674408 Sn
   0.8333333730697632    0.1666667461395264    0.6666666865348816 Sn
   0.8333333730697632    0.6666666865348816    0.6666666865348816 Sn
   0.3333333432674408    0.1666666865348816    0.6666666865348816 Sn
   0.5145645141601562    0.0291290283203125    0.7515106201171875 S
   0.9708709716796875    0.4854354858398438    0.7515106201171875 S
   0.5145645141601562    0.4854354858398438    0.7515106201171875 S
   0.0291290283203125    0.5145645141601562    0.2484893798828125 S
   0.4854354858398438    0.9708709716796875    0.2484893798828125 S
   0.4854354858398438    0.5145645141601562    0.2484893798828125 S
   0.1812312602996826    0.3624623715877533    0.0848439931869507 S
   0.6375376582145691    0.8187688589096069    0.0848439931869507 S
   0.1812312006950378    0.8187688589096069    0.0848439931869507 S
   0.6957957148551941    0.8478978872299194    0.5818227529525757 S
   0.1521022319793701    0.3042043149471283    0.5818227529525757 S
   0.1521021723747253    0.8478978872299194    0.5818227529525757 S
   0.8478978872299194    0.6957957148551941    0.4181773662567139 S
   0.3042043149471283    0.1521022319793701    0.4181773662567139 S
   0.8478978872299194    0.1521021723747253    0.4181773662567139 S
   0.3624623715877533    0.1812312602996826    0.9151560664176941 S
   0.8187688589096069    0.6375376582145691    0.9151560664176941 S
   0.8187688589096069    0.1812312006950378    0.9151560664176941 S
