Sc4 Mn4 Ni4 Ge24
1.0
   3.9060501968822656    0.0000000000000000   -0.0002553799244645
  -0.0002656750222456    4.0632486169683855   -0.0002656576528197
   0.0000000000000000    0.0000000000000000   37.5468482971191406
Ni Ge Sc Mn Ge
4 20 4 4 4
direct
   0.0000000000000000    0.0000000000000000    0.3593444824218750 Ni
   0.5000000000000000    0.0000000000000000    0.3593444824218750 Ni
   0.0000000000000000    0.5000000000000000    0.8593444824218750 Ni
   0.5000000000000000    0.5000000000000000    0.8593444824218750 Ni
   0.0000000000000000    0.5000000000000000    0.1688537597656250 Ge
   0.5000000000000000    0.5000000000000000    0.1688537597656250 Ge
   0.0000000000000000    0.0000000000000000    0.6688537597656250 Ge
   0.5000000000000000    0.0000000000000000    0.6688537597656250 Ge
   0.0000000000000000    0.5000000000000000    0.3157958984375000 Ge
   0.5000000000000000    0.5000000000000000    0.3157958984375000 Ge
   0.0000000000000000    0.0000000000000000    0.8157958984375000 Ge
   0.5000000000000000    0.0000000000000000    0.8157958984375000 Ge
   0.0000000000000000    0.0000000000000000    0.9921875000000000 Ge
   0.5000000000000000    0.0000000000000000    0.9921875000000000 Ge
   0.0000000000000000    0.5000000000000000    0.4921875000000000 Ge
   0.5000000000000000    0.5000000000000000    0.4921875000000000 Ge
   0.0000000000000000    0.0000000000000000    0.5512084960937500 Ge
   0.5000000000000000    0.0000000000000000    0.5512084960937500 Ge
   0.0000000000000000    0.5000000000000000    0.0512084960937500 Ge
   0.5000000000000000    0.5000000000000000    0.0512084960937500 Ge
   0.0000000000000000    0.5000000000000000    0.7071533203125000 Ge
   0.5000000000000000    0.5000000000000000    0.7071533203125000 Ge
   0.0000000000000000    0.0000000000000000    0.2071533203125000 Ge
   0.5000000000000000    0.0000000000000000    0.2071533203125000 Ge
   0.2500000000000000    0.8093109130859375    0.8977661132812500 Sc
   0.7500000000000000    0.1906890869140625    0.8977661132812500 Sc
   0.2500000000000000    0.3093109130859375    0.3977661132812500 Sc
   0.7500000000000000    0.6906890869140625    0.3977661132812500 Sc
   0.2500000000000000    0.7042846679687500    0.2547607421875000 Mn
   0.7500000000000000    0.2957153320312500    0.2547607421875000 Mn
   0.2500000000000000    0.2042846679687500    0.7547607421875000 Mn
   0.7500000000000000    0.7957153320312500    0.7547607421875000 Mn
   0.2500000000000000    0.8120117187500000    0.4495258331298828 Ge
   0.7500000000000000    0.1879882812500000    0.4495258331298828 Ge
   0.2500000000000000    0.3120117187500000    0.9495258331298828 Ge
   0.7500000000000000    0.6879882812500000    0.9495258331298828 Ge
