Yb1 Ga6 Ge2 Rh3
1.0
   8.1766519371748245    0.0000000000000000   -0.0005345944493377
  -4.0878620969498218    7.0814560916541609   -0.0005345944493377
   0.0000000000000000    0.0000000000000000    3.4606504440307617
Yb Ge Rh Ga
1 2 3 6
direct
   0.0000000000000000    0.0000000000000000    0.0000000000000000 Yb
   0.6666666865348816    0.3333333432674408    0.0000000000000000 Ge
   0.3333333134651184    0.6666666269302368    0.0000000000000000 Ge
   0.5000000000000000    0.0000000000000000    0.5000000000000000 Rh
   0.0000000000000000    0.5000000000000000    0.5000000000000000 Rh
   0.5000000000000000    0.5000000000000000    0.5000000000000000 Rh
   0.8691406250000000    0.4345703125000000    0.0000000000000000 Ga
   0.5654296875000000    0.4345703125000000    0.0000000000000000 Ga
   0.5654296875000000    0.1308593750000000    0.0000000000000000 Ga
   0.1308593750000000    0.5654296875000000    0.0000000000000000 Ga
   0.4345703125000000    0.5654296875000000    0.0000000000000000 Ga
   0.4345703125000000    0.8691406250000000    0.0000000000000000 Ga
