Sr3 Ca1 Y1 Ta4 O13
1.0
   4.8492503062555130    0.0000000000000000   -0.0003170469181142
  -0.0005611820329361    8.5827493300698343   -0.0005611453437146
   0.0000000000000000    0.0000000000000000    8.5172538757324219
O Y Sr O Ca O Sr Ta
1 1 1 2 1 10 2 4
direct
   0.0000000000000000    0.2579803466796875    0.0000000000000000 O
   0.0000000000000000    0.0820312500000000    0.5000000000000000 Y
   0.5000000000000000    0.1240234375000000    0.0000000000000000 Sr
   0.5000000000000000    0.6765136718750000    0.5000000000000000 O
   0.5000000000000000    0.9920043945312500    0.5000000000000000 O
   0.5000000000000000    0.3967285156250000    0.5000000000000000 Ca
   0.1700439453125000    0.2487792968750000    0.3347778320312500 O
   0.8299560546875000    0.2487792968750000    0.6652221679687500 O
   0.9025878906250000    0.8587646484375000    0.3649368286132812 O
   0.0974121093750000    0.8587646484375000    0.6350631713867188 O
   0.4069824218750000    0.3919677734375000    0.8232421875000000 O
   0.5930175781250000    0.3919677734375000    0.1767578125000000 O
   0.1667480468750000    0.5859985351562500    0.2443237304687500 O
   0.8332519531250000    0.5859985351562500    0.7556762695312500 O
   0.6291809082031250    0.8754882812500000    0.8283691406250000 O
   0.3708190917968750    0.8754882812500000    0.1716308593750000 O
   0.2731323242187500    0.6906738281250000    0.8435058593750000 Sr
   0.7268676757812500    0.6906738281250000    0.1564941406250000 Sr
   0.7165527343750000    0.8387451171875000    0.6243896484375000 Ta
   0.2834472656250000    0.8387451171875000    0.3756103515625000 Ta
   0.7872619628906250    0.3906250000000000    0.8378906250000000 Ta
   0.2127380371093750    0.3906250000000000    0.1621093750000000 Ta
