Mn4 Ni8 Sn4
1.0
   6.2116498814381229    0.0000000000000000   -0.0004061214263932
  -0.0004061479797258    6.2116498681601549   -0.0004061214263932
   0.0000000000000000    0.0000000000000000    6.2116498947143555
Sn Mn Ni
4 4 8
direct
   0.0000000000000000    0.0000000000000000    0.0000000000000000 Sn
   0.0000000000000000    0.5000000000000000    0.5000000000000000 Sn
   0.5000000000000000    0.0000000000000000    0.5000000000000000 Sn
   0.5000000000000000    0.5000000000000000    0.0000000000000000 Sn
   0.5000000000000000    0.0000000000000000    0.0000000000000000 Mn
   0.0000000000000000    0.5000000000000000    0.0000000000000000 Mn
   0.0000000000000000    0.0000000000000000    0.5000000000000000 Mn
   0.5000000000000000    0.5000000000000000    0.5000000000000000 Mn
   0.2500000000000000    0.2500000000000000    0.2500000000000000 Ni
   0.7500000000000000    0.7500000000000000    0.2500000000000000 Ni
   0.7500000000000000    0.2500000000000000    0.7500000000000000 Ni
   0.2500000000000000    0.7500000000000000    0.7500000000000000 Ni
   0.2500000000000000    0.2500000000000000    0.7500000000000000 Ni
   0.7500000000000000    0.7500000000000000    0.7500000000000000 Ni
   0.7500000000000000    0.2500000000000000    0.2500000000000000 Ni
   0.2500000000000000    0.7500000000000000    0.2500000000000000 Ni
