Ti2 Ni6 O12
1.0
   3.1462488107193329    0.0000000000000000   -0.0002057036502678
  -0.0002305568608204    3.5261494962633333   -0.0002305417873661
   0.0000000000000000    0.0000000000000000   12.2769451141357422
Ni Ti Ni O
2 2 4 12
direct
   0.0000000000000000    0.0000000000000000    0.0000000000000000 Ni
   0.5000000000000000    0.5000000000000000    0.5000000000000000 Ni
   0.0000000000000000    0.5000000000000000    0.0000000000000000 Ti
   0.5000000000000000    0.0000000000000000    0.5000000000000000 Ti
   0.0000000000000000    0.0000000000000000    0.2941589355468750 Ni
   0.0000000000000000    0.0000000000000000    0.7058410644531250 Ni
   0.5000000000000000    0.5000000000000000    0.7941589355468750 Ni
   0.5000000000000000    0.5000000000000000    0.2058410644531250 Ni
   0.0000000000000000    0.5000000000000000    0.7965087890625000 O
   0.0000000000000000    0.5000000000000000    0.2034912109375000 O
   0.5000000000000000    0.0000000000000000    0.2965087890625000 O
   0.5000000000000000    0.0000000000000000    0.7034912109375000 O
   0.2266235351562500    0.2508850097656250    0.5000000000000000 O
   0.7733764648437500    0.7491149902343750    0.5000000000000000 O
   0.7733764648437500    0.2508850097656250    0.5000000000000000 O
   0.2266235351562500    0.7491149902343750    0.5000000000000000 O
   0.7266235351562500    0.7508850097656250    0.0000000000000000 O
   0.2733764648437500    0.2491149902343750    0.0000000000000000 O
   0.2733764648437500    0.7508850097656250    0.0000000000000000 O
   0.7266235351562500    0.2491149902343750    0.0000000000000000 O
