Na3 Cr3 O6
1.0
   3.3034477163281744    0.0000000000000000   -0.0002159814097990
  -1.6515364494650693    2.8609778346925627   -0.0002159814097990
   0.0000000000000000    0.0000000000000000   16.9405536651611328
Cr Na O
3 3 6
direct
   0.0000000000000000    0.0000000000000000    0.0000000000000000 Cr
   0.6666666865348816    0.3333333432674408    0.3333333432674408 Cr
   0.3333333432674408    0.6666666865348816    0.6666666865348816 Cr
   0.3333333432674408    0.6666666865348816    0.1666666716337204 Na
   0.6666666865348816    0.3333333432674408    0.8333333134651184 Na
   0.0000000000000000    0.0000000000000000    0.5000000000000000 Na
   0.6666666865348816    0.3333333432674408    0.0703430175781250 O
   0.3333333432674408    0.6666666865348816    0.9296569824218750 O
   0.3333333730697632    0.6666666865348816    0.4036763608455658 O
   0.0000000000000000    0.0000000000000000    0.2629903256893158 O
   0.0000000000000000    0.0000000000000000    0.7370097041130066 O
   0.6666666865348816    0.3333333730697632    0.5963236689567566 O
