Ba2 Yb6 Fe8 O36
1.0
   7.7967514825119366    0.0000000000000000   -0.0005097563278274
  -0.0005097896570941    7.7967514658456691   -0.0005097563278274
   0.0000000000000000    0.0000000000000000    7.7967514991760254
Ba Yb Fe O
2 6 8 36
direct
   0.0000000000000000    0.0000000000000000    0.0000000000000000 Ba
   0.5000000000000000    0.5000000000000000    0.5000000000000000 Ba
   0.5000000000000000    0.0000000000000000    0.0000000000000000 Yb
   0.0000000000000000    0.5000000000000000    0.0000000000000000 Yb
   0.0000000000000000    0.0000000000000000    0.5000000000000000 Yb
   0.0000000000000000    0.5000000000000000    0.5000000000000000 Yb
   0.5000000000000000    0.0000000000000000    0.5000000000000000 Yb
   0.5000000000000000    0.5000000000000000    0.0000000000000000 Yb
   0.2500000000000000    0.2500000000000000    0.2500000000000000 Fe
   0.7500000000000000    0.7500000000000000    0.2500000000000000 Fe
   0.7500000000000000    0.2500000000000000    0.7500000000000000 Fe
   0.2500000000000000    0.7500000000000000    0.7500000000000000 Fe
   0.2500000000000000    0.2500000000000000    0.7500000000000000 Fe
   0.7500000000000000    0.7500000000000000    0.7500000000000000 Fe
   0.2500000000000000    0.7500000000000000    0.2500000000000000 Fe
   0.7500000000000000    0.2500000000000000    0.2500000000000000 Fe
   0.5000000000000000    0.2500000000000000    0.0000000000000000 O
   0.5000000000000000    0.7500000000000000    0.0000000000000000 O
   0.0000000000000000    0.5000000000000000    0.2500000000000000 O
   0.0000000000000000    0.5000000000000000    0.7500000000000000 O
   0.2500000000000000    0.0000000000000000    0.5000000000000000 O
   0.7500000000000000    0.0000000000000000    0.5000000000000000 O
   0.2500000000000000    0.5000000000000000    0.0000000000000000 O
   0.7500000000000000    0.5000000000000000    0.0000000000000000 O
   0.5000000000000000    0.0000000000000000    0.7500000000000000 O
   0.5000000000000000    0.0000000000000000    0.2500000000000000 O
   0.0000000000000000    0.2500000000000000    0.5000000000000000 O
   0.0000000000000000    0.7500000000000000    0.5000000000000000 O
   0.2398605346679688    0.2398605346679688    0.0000000000000000 O
   0.7601394653320312    0.7601394653320312    0.0000000000000000 O
   0.7601394653320312    0.2398605346679688    0.0000000000000000 O
   0.2398605346679688    0.7601394653320312    0.0000000000000000 O
   0.0000000000000000    0.2398605346679688    0.2398605346679688 O
   0.0000000000000000    0.7601394653320312    0.7601394653320312 O
   0.0000000000000000    0.7601394653320312    0.2398605346679688 O
   0.0000000000000000    0.2398605346679688    0.7601394653320312 O
   0.2398605346679688    0.0000000000000000    0.2398605346679688 O
   0.7601394653320312    0.0000000000000000    0.7601394653320312 O
   0.2398605346679688    0.0000000000000000    0.7601394653320312 O
   0.7601394653320312    0.0000000000000000    0.2398605346679688 O
   0.7398605346679688    0.7398605346679688    0.5000000000000000 O
   0.2601394653320312    0.2601394653320312    0.5000000000000000 O
   0.2601394653320312    0.7398605346679688    0.5000000000000000 O
   0.7398605346679688    0.2601394653320312    0.5000000000000000 O
   0.5000000000000000    0.7398605346679688    0.7398605346679688 O
   0.5000000000000000    0.2601394653320312    0.2601394653320312 O
   0.5000000000000000    0.2601394653320312    0.7398605346679688 O
   0.5000000000000000    0.7398605346679688    0.2601394653320312 O
   0.7398605346679688    0.5000000000000000    0.7398605346679688 O
   0.2601394653320312    0.5000000000000000    0.2601394653320312 O
   0.7398605346679688    0.5000000000000000    0.2601394653320312 O
   0.2601394653320312    0.5000000000000000    0.7398605346679688 O
