Nd3 Ni3 Sn3
1.0
   7.2858486019815807    0.0000000000000000   -0.0004763531884763
  -3.6425109657347217    6.3099685986143594   -0.0004763531884763
   0.0000000000000000    0.0000000000000000    4.4038505554199219
Ni Nd Sn
3 3 3
direct
   0.0000000000000000    0.0000000000000000    0.0000000000000000 Ni
   0.6666666865348816    0.3333333432674408    0.5000000000000000 Ni
   0.3333333432674408    0.6666666865348816    0.5000000000000000 Ni
   0.5858154296875000    0.5858154296875000    0.0000000000000000 Nd
   0.4141845703125000    0.0000000000000000    0.0000000000000000 Nd
   0.0000000000000000    0.4141845703125000    0.0000000000000000 Nd
   0.2523097991943359    0.2523097991943359    0.5000000000000000 Sn
   0.7476902008056641    0.0000000000000000    0.5000000000000000 Sn
   0.0000000000000000    0.7476902008056641    0.5000000000000000 Sn
