Al8 Os4 Rh4
1.0
   6.1985516415674367    0.0000000000000000   -0.0004052650555479
  -0.0004052915528887    6.1985516283174675   -0.0004052650555479
   0.0000000000000000    0.0000000000000000    6.1985516548156738
Rh Os Al
4 4 8
direct
   0.0000000000000000    0.0000000000000000    0.0000000000000000 Rh
   0.0000000000000000    0.5000000000000000    0.5000000000000000 Rh
   0.5000000000000000    0.0000000000000000    0.5000000000000000 Rh
   0.5000000000000000    0.5000000000000000    0.0000000000000000 Rh
   0.5000000000000000    0.0000000000000000    0.0000000000000000 Os
   0.0000000000000000    0.5000000000000000    0.0000000000000000 Os
   0.0000000000000000    0.0000000000000000    0.5000000000000000 Os
   0.5000000000000000    0.5000000000000000    0.5000000000000000 Os
   0.2500000000000000    0.2500000000000000    0.2500000000000000 Al
   0.7500000000000000    0.7500000000000000    0.2500000000000000 Al
   0.7500000000000000    0.2500000000000000    0.7500000000000000 Al
   0.2500000000000000    0.7500000000000000    0.7500000000000000 Al
   0.2500000000000000    0.2500000000000000    0.7500000000000000 Al
   0.7500000000000000    0.7500000000000000    0.7500000000000000 Al
   0.2500000000000000    0.7500000000000000    0.2500000000000000 Al
   0.7500000000000000    0.2500000000000000    0.2500000000000000 Al
