Pm2 Y6
1.0
   7.2596483075429505    0.0000000000000000   -0.0004746401973786
  -3.6294123048907077    6.2872776199496032   -0.0004746401973786
   0.0000000000000000    0.0000000000000000    5.8710517883300781
Pm Y
2 6
direct
   0.3333333432674408    0.6666666865348816    0.2500000000000000 Pm
   0.6666666269302368    0.3333333134651184    0.7500000000000000 Pm
   0.8341064453125000    0.6682128906250000    0.2500000000000000 Y
   0.3317871093750000    0.1658935546875000    0.2500000000000000 Y
   0.8341064453125000    0.1658935546875000    0.2500000000000000 Y
   0.1658935546875000    0.3317871093750000    0.7500000000000000 Y
   0.6682128906250000    0.8341064453125000    0.7500000000000000 Y
   0.1658935546875000    0.8341064453125000    0.7500000000000000 Y
