K4 Mn4 F24
1.0
   6.4736504416386440    0.0000000000000000   -0.0004232511814914
  -0.0004232788548144    6.4736504278006253   -0.0004232511814914
   0.0000000000000000    0.0000000000000000   12.0542478561401367
K Mn F
4 4 24
direct
   0.0000000000000000    0.0000000000000000    0.2500000000000000 K
   0.0000000000000000    0.0000000000000000    0.7500000000000000 K
   0.5000000000000000    0.5000000000000000    0.7500000000000000 K
   0.5000000000000000    0.5000000000000000    0.2500000000000000 K
   0.5000000000000000    0.0000000000000000    0.2500000000000000 Mn
   0.0000000000000000    0.5000000000000000    0.2500000000000000 Mn
   0.5000000000000000    0.0000000000000000    0.7500000000000000 Mn
   0.0000000000000000    0.5000000000000000    0.7500000000000000 Mn
   0.3420410156250000    0.1579589843750000    0.0000000000000000 F
   0.6579589843750000    0.8420410156250000    0.0000000000000000 F
   0.8420410156250000    0.3420410156250000    0.0000000000000000 F
   0.1579589843750000    0.6579589843750000    0.0000000000000000 F
   0.6579589843750000    0.1579589843750000    0.5000000000000000 F
   0.3420410156250000    0.8420410156250000    0.5000000000000000 F
   0.1579589843750000    0.3420410156250000    0.5000000000000000 F
   0.8420410156250000    0.6579589843750000    0.5000000000000000 F
   0.6493225097656250    0.8506774902343750    0.3323974609375000 F
   0.3506774902343750    0.1493225097656250    0.3323974609375000 F
   0.1493225097656250    0.6493225097656250    0.3323974609375000 F
   0.8506774902343750    0.3506774902343750    0.3323974609375000 F
   0.3506774902343750    0.8506774902343750    0.1676025390625000 F
   0.6493225097656250    0.1493225097656250    0.1676025390625000 F
   0.8506774902343750    0.6493225097656250    0.1676025390625000 F
   0.1493225097656250    0.3506774902343750    0.1676025390625000 F
   0.3506774902343750    0.1493225097656250    0.6676025390625000 F
   0.6493225097656250    0.8506774902343750    0.6676025390625000 F
   0.8506774902343750    0.3506774902343750    0.6676025390625000 F
   0.1493225097656250    0.6493225097656250    0.6676025390625000 F
   0.6493225097656250    0.1493225097656250    0.8323974609375000 F
   0.3506774902343750    0.8506774902343750    0.8323974609375000 F
   0.1493225097656250    0.3506774902343750    0.8323974609375000 F
   0.8506774902343750    0.6493225097656250    0.8323974609375000 F
