Cs4 Ho4 C8 O24
1.0
   9.2477544309495183    0.0000000000000000   -3.5867346498412362
  -0.0012010180403646   12.5782488934386549   -0.0008223735244131
   0.0000000000000000    0.0000000000000000    5.6352519989013672
Cs Ho C O
4 4 8 24
direct
   0.5000000000000000    0.8760704994201660    0.2500000000000000 Cs
   0.5000000000000000    0.1239295005798340    0.7500000000000000 Cs
   0.0000000000000000    0.3760704994201660    0.2500000000000000 Cs
   0.0000000000000000    0.6239295005798340    0.7500000000000000 Cs
   0.5000000000000000    0.3963012695312500    0.2500000000000000 Ho
   0.5000000000000000    0.6036987304687500    0.7500000000000000 Ho
   0.0000000000000000    0.8963012695312500    0.2500000000000000 Ho
   0.0000000000000000    0.1036987304687500    0.7500000000000000 Ho
   0.2626953125000000    0.6302947998046875    0.3004150390625000 C
   0.7373046875000000    0.6302947998046875    0.1995849609375000 C
   0.7373046875000000    0.3697052001953125    0.6995849609375000 C
   0.2626953125000000    0.3697052001953125    0.8004150390625000 C
   0.7626953125000000    0.1302947998046875    0.3004150390625000 C
   0.2373046875000000    0.1302947998046875    0.1995849609375000 C
   0.2373046875000000    0.8697052001953125    0.6995849609375000 C
   0.7626953125000000    0.8697052001953125    0.8004150390625000 C
   0.2974243164062500    0.2127380371093750    0.3068847656250000 O
   0.7025756835937500    0.2127380371093750    0.1931152343750000 O
   0.7025756835937500    0.7872619628906250    0.6931152343750000 O
   0.2974243164062500    0.7872619628906250    0.8068847656250000 O
   0.7974243164062500    0.7127380371093750    0.3068847656250000 O
   0.2025756835937500    0.7127380371093750    0.1931152343750000 O
   0.2025756835937500    0.2872619628906250    0.6931152343750000 O
   0.7974243164062500    0.2872619628906250    0.8068847656250000 O
   0.8820190429687500    0.0674171447753906    0.3304443359375000 O
   0.1179809570312500    0.0674171447753906    0.1695556640625000 O
   0.1179809570312500    0.9325828552246094    0.6695556640625000 O
   0.8820190429687500    0.9325828552246094    0.8304443359375000 O
   0.3820190429687500    0.5674171447753906    0.3304443359375000 O
   0.6179809570312500    0.5674171447753906    0.1695556640625000 O
   0.6179809570312500    0.4325828552246094    0.6695556640625000 O
   0.3820190429687500    0.4325828552246094    0.8304443359375000 O
   0.7161865234375000    0.0875244140625000    0.4692382812500000 O
   0.2838134765625000    0.0875244140625000    0.0307617187500000 O
   0.2838134765625000    0.9124755859375000    0.5307617187500000 O
   0.7161865234375000    0.9124755859375000    0.9692382812500000 O
   0.2161865234375000    0.5875244140625000    0.4692382812500000 O
   0.7838134765625000    0.5875244140625000    0.0307617187500000 O
   0.7838134765625000    0.4124755859375000    0.5307617187500000 O
   0.2161865234375000    0.4124755859375000    0.9692382812500000 O
