Er20 Ni8 Bi4
1.0
   7.6788472965151557    0.0000000000000000   -0.0005020476808320
  -0.0005020805060862    7.6788472801009195   -0.0005020476808320
   0.0000000000000000    0.0000000000000000   13.7048482894897461
Bi Er Ni Er
4 4 8 16
direct
   0.0000000000000000    0.0000000000000000    0.2500000000000000 Bi
   0.0000000000000000    0.0000000000000000    0.7500000000000000 Bi
   0.5000000000000000    0.5000000000000000    0.7500000000000000 Bi
   0.5000000000000000    0.5000000000000000    0.2500000000000000 Bi
   0.0000000000000000    0.0000000000000000    0.0000000000000000 Er
   0.0000000000000000    0.0000000000000000    0.5000000000000000 Er
   0.5000000000000000    0.5000000000000000    0.5000000000000000 Er
   0.5000000000000000    0.5000000000000000    0.0000000000000000 Er
   0.6376953125000000    0.8623046875000000    0.0000000000000000 Ni
   0.3623046875000000    0.1376953125000000    0.0000000000000000 Ni
   0.1376953125000000    0.6376953125000000    0.0000000000000000 Ni
   0.8623046875000000    0.3623046875000000    0.0000000000000000 Ni
   0.3623046875000000    0.8623046875000000    0.5000000000000000 Ni
   0.6376953125000000    0.1376953125000000    0.5000000000000000 Ni
   0.8623046875000000    0.6376953125000000    0.5000000000000000 Ni
   0.1376953125000000    0.3623046875000000    0.5000000000000000 Ni
   0.6576538085937500    0.8423461914062500    0.6312255859375000 Er
   0.3423461914062500    0.1576538085937500    0.6312255859375000 Er
   0.1576538085937500    0.6576538085937500    0.6312255859375000 Er
   0.8423461914062500    0.3423461914062500    0.6312255859375000 Er
   0.3423461914062500    0.8423461914062500    0.8687744140625000 Er
   0.6576538085937500    0.1576538085937500    0.8687744140625000 Er
   0.8423461914062500    0.6576538085937500    0.8687744140625000 Er
   0.1576538085937500    0.3423461914062500    0.8687744140625000 Er
   0.3423461914062500    0.1576538085937500    0.3687744140625000 Er
   0.6576538085937500    0.8423461914062500    0.3687744140625000 Er
   0.8423461914062500    0.3423461914062500    0.3687744140625000 Er
   0.1576538085937500    0.6576538085937500    0.3687744140625000 Er
   0.6576538085937500    0.1576538085937500    0.1312255859375000 Er
   0.3423461914062500    0.8423461914062500    0.1312255859375000 Er
   0.1576538085937500    0.3423461914062500    0.1312255859375000 Er
   0.8423461914062500    0.6576538085937500    0.1312255859375000 Er
