Sr4 In8
1.0
   8.8243252660451823    0.0000000000000000   -8.4788731020370722
  -0.0008830591288436    5.7531479988511647   -0.0003761443004136
   0.0000000000000000    0.0000000000000000    8.5434503555297852
Sr In
4 8
direct
   0.4520263671875000    0.0000000000000000    0.2198333740234375 Sr
   0.5479736328125000    0.0000000000000000    0.7801666259765625 Sr
   0.9520263671875000    0.5000000000000000    0.2198333740234375 Sr
   0.0479736328125000    0.5000000000000000    0.7801666259765625 Sr
   0.1665344238281250    0.0000000000000000    0.6276245117187500 In
   0.8334655761718750    0.0000000000000000    0.3723754882812500 In
   0.6665344238281250    0.5000000000000000    0.6276245117187500 In
   0.3334655761718750    0.5000000000000000    0.3723754882812500 In
   0.8552932739257812    0.0000000000000000    0.7658081054687500 In
   0.1447067260742188    0.0000000000000000    0.2341918945312500 In
   0.3552932739257812    0.5000000000000000    0.7658081054687500 In
   0.6447067260742188    0.5000000000000000    0.2341918945312500 In
