Tl2 Pd2 Br5
1.0
   4.2204513459600488    0.0000000000000000   -0.0002759356617581
  -0.0005911611189024    9.0412511439056811   -0.0005911224696942
   0.0000000000000000    0.0000000000000000    8.9495515823364258
Br Tl Br Pd Br
1 2 2 2 2
direct
   0.0000000000000000    0.0000000000000000    0.4849853515625000 Br
   0.0000000000000000    0.5000000000000000    0.9965820312500000 Tl
   0.0000000000000000    0.5000000000000000    0.4149169921875000 Tl
   0.5000000000000000    0.0000000000000000    0.8114013671875000 Br
   0.5000000000000000    0.5000000000000000    0.6910400390625000 Br
   0.0000000000000000    0.1659088134765625    0.7183227539062500 Pd
   0.0000000000000000    0.8340911865234375    0.7183227539062500 Pd
   0.5000000000000000    0.7224731445312500    0.2102050781250000 Br
   0.5000000000000000    0.2775268554687500    0.2102050781250000 Br
