Mg8 V8 F16
1.0
   5.3470511322179251    0.0000000000000000   -0.0003495934372127
  -0.0003496162945904    5.3470511207881160   -0.0003495934372127
   0.0000000000000000    0.0000000000000000   11.9363517761230469
V Mg F
8 8 16
direct
   0.0000000000000000    0.0000000000000000    0.0000000000000000 V
   0.5000000000000000    0.0000000000000000    0.5000000000000000 V
   0.7500000000000000    0.2500000000000000    0.2500000000000000 V
   0.7500000000000000    0.7500000000000000    0.7500000000000000 V
   0.2500000000000000    0.7500000000000000    0.7500000000000000 V
   0.2500000000000000    0.2500000000000000    0.2500000000000000 V
   0.5000000000000000    0.5000000000000000    0.5000000000000000 V
   0.0000000000000000    0.5000000000000000    0.0000000000000000 V
   0.0000000000000000    0.0000000000000000    0.5000000000000000 Mg
   0.5000000000000000    0.0000000000000000    0.0000000000000000 Mg
   0.7500000000000000    0.2500000000000000    0.7500000000000000 Mg
   0.7500000000000000    0.7500000000000000    0.2500000000000000 Mg
   0.2500000000000000    0.7500000000000000    0.2500000000000000 Mg
   0.2500000000000000    0.2500000000000000    0.7500000000000000 Mg
   0.5000000000000000    0.5000000000000000    0.0000000000000000 Mg
   0.0000000000000000    0.5000000000000000    0.5000000000000000 Mg
   0.4937744140625000    0.9904556274414062    0.3009033203125000 F
   0.0062255859375000    0.0095443725585938    0.8009033203125000 F
   0.7595443725585938    0.7437744140625000    0.5509033203125000 F
   0.7404556274414062    0.2562255859375000    0.0509033203125000 F
   0.5062255859375000    0.0095443725585938    0.6990966796875000 F
   0.9937744140625000    0.9904556274414062    0.1990966796875000 F
   0.2404556274414062    0.2562255859375000    0.4490966796875000 F
   0.2595443725585938    0.7437744140625000    0.9490966796875000 F
   0.9937744140625000    0.4904556274414062    0.8009033203125000 F
   0.5062255859375000    0.5095443725585938    0.3009033203125000 F
   0.2595443725585938    0.2437744140625000    0.0509033203125000 F
   0.2404556274414062    0.7562255859375000    0.5509033203125000 F
   0.0062255859375000    0.5095443725585938    0.1990966796875000 F
   0.4937744140625000    0.4904556274414062    0.6990966796875000 F
   0.7404556274414062    0.7562255859375000    0.9490966796875000 F
   0.7595443725585938    0.2437744140625000    0.4490966796875000 F
