Y24 Co12 Sn2
1.0
  10.0106515670440572    0.0000000000000000   -0.0006545024544416
  -0.0006545452476071   10.0106515456453771   -0.0006545024544416
   0.0000000000000000    0.0000000000000000   10.0106515884399414
Sn Co Y
2 12 24
direct
   0.0000000000000000    0.0000000000000000    0.0000000000000000 Sn
   0.5000000000000000    0.5000000000000000    0.5000000000000000 Sn
   0.5000000000000000    0.3891448974609375    0.0000000000000000 Co
   0.5000000000000000    0.6108551025390625    0.0000000000000000 Co
   0.0000000000000000    0.5000000000000000    0.3891448974609375 Co
   0.0000000000000000    0.5000000000000000    0.6108551025390625 Co
   0.3891448974609375    0.0000000000000000    0.5000000000000000 Co
   0.6108551025390625    0.0000000000000000    0.5000000000000000 Co
   0.0000000000000000    0.8891448974609375    0.5000000000000000 Co
   0.0000000000000000    0.1108551025390625    0.5000000000000000 Co
   0.5000000000000000    0.0000000000000000    0.8891448974609375 Co
   0.5000000000000000    0.0000000000000000    0.1108551025390625 Co
   0.8891448974609375    0.5000000000000000    0.0000000000000000 Co
   0.1108551025390625    0.5000000000000000    0.0000000000000000 Co
   0.5000000000000000    0.1950073242187500    0.6894531250000000 Y
   0.5000000000000000    0.8049926757812500    0.6894531250000000 Y
   0.5000000000000000    0.1950073242187500    0.3105468750000000 Y
   0.5000000000000000    0.8049926757812500    0.3105468750000000 Y
   0.6894531250000000    0.5000000000000000    0.1950073242187500 Y
   0.6894531250000000    0.5000000000000000    0.8049926757812500 Y
   0.3105468750000000    0.5000000000000000    0.1950073242187500 Y
   0.3105468750000000    0.5000000000000000    0.8049926757812500 Y
   0.1950073242187500    0.6894531250000000    0.5000000000000000 Y
   0.8049926757812500    0.6894531250000000    0.5000000000000000 Y
   0.1950073242187500    0.3105468750000000    0.5000000000000000 Y
   0.8049926757812500    0.3105468750000000    0.5000000000000000 Y
   0.0000000000000000    0.6950073242187500    0.1894531250000000 Y
   0.0000000000000000    0.3049926757812500    0.1894531250000000 Y
   0.0000000000000000    0.6950073242187500    0.8105468750000000 Y
   0.0000000000000000    0.3049926757812500    0.8105468750000000 Y
   0.1894531250000000    0.0000000000000000    0.6950073242187500 Y
   0.1894531250000000    0.0000000000000000    0.3049926757812500 Y
   0.8105468750000000    0.0000000000000000    0.6950073242187500 Y
   0.8105468750000000    0.0000000000000000    0.3049926757812500 Y
   0.6950073242187500    0.1894531250000000    0.0000000000000000 Y
   0.3049926757812500    0.1894531250000000    0.0000000000000000 Y
   0.6950073242187500    0.8105468750000000    0.0000000000000000 Y
   0.3049926757812500    0.8105468750000000    0.0000000000000000 Y
