Rb12 Ga4 F24
1.0
   8.6744489484399789    0.0000000000000000   -0.0005671407190290
  -0.0005671778002446    8.6744489298975527   -0.0005671407190290
   0.0000000000000000    0.0000000000000000    8.6744489669799805
Ga Rb F
4 12 24
direct
   0.0000000000000000    0.0000000000000000    0.0000000000000000 Ga
   0.0000000000000000    0.5000000000000000    0.5000000000000000 Ga
   0.5000000000000000    0.0000000000000000    0.5000000000000000 Ga
   0.5000000000000000    0.5000000000000000    0.0000000000000000 Ga
   0.5000000000000000    0.0000000000000000    0.0000000000000000 Rb
   0.0000000000000000    0.5000000000000000    0.0000000000000000 Rb
   0.0000000000000000    0.0000000000000000    0.5000000000000000 Rb
   0.5000000000000000    0.5000000000000000    0.5000000000000000 Rb
   0.2500000000000000    0.2500000000000000    0.2500000000000000 Rb
   0.7500000000000000    0.7500000000000000    0.2500000000000000 Rb
   0.7500000000000000    0.2500000000000000    0.7500000000000000 Rb
   0.2500000000000000    0.7500000000000000    0.7500000000000000 Rb
   0.2500000000000000    0.2500000000000000    0.7500000000000000 Rb
   0.7500000000000000    0.7500000000000000    0.7500000000000000 Rb
   0.2500000000000000    0.7500000000000000    0.2500000000000000 Rb
   0.7500000000000000    0.2500000000000000    0.2500000000000000 Rb
   0.7842407226562500    0.0000000000000000    0.0000000000000000 F
   0.2157592773437500    0.0000000000000000    0.0000000000000000 F
   0.0000000000000000    0.7842407226562500    0.0000000000000000 F
   0.0000000000000000    0.2157592773437500    0.0000000000000000 F
   0.0000000000000000    0.0000000000000000    0.7842407226562500 F
   0.0000000000000000    0.0000000000000000    0.2157592773437500 F
   0.7842407226562500    0.5000000000000000    0.5000000000000000 F
   0.2157592773437500    0.5000000000000000    0.5000000000000000 F
   0.0000000000000000    0.2842407226562500    0.5000000000000000 F
   0.0000000000000000    0.7157592773437500    0.5000000000000000 F
   0.0000000000000000    0.5000000000000000    0.2842407226562500 F
   0.0000000000000000    0.5000000000000000    0.7157592773437500 F
   0.2842407226562500    0.0000000000000000    0.5000000000000000 F
   0.7157592773437500    0.0000000000000000    0.5000000000000000 F
   0.5000000000000000    0.7842407226562500    0.5000000000000000 F
   0.5000000000000000    0.2157592773437500    0.5000000000000000 F
   0.5000000000000000    0.0000000000000000    0.2842407226562500 F
   0.5000000000000000    0.0000000000000000    0.7157592773437500 F
   0.2842407226562500    0.5000000000000000    0.0000000000000000 F
   0.7157592773437500    0.5000000000000000    0.0000000000000000 F
   0.5000000000000000    0.2842407226562500    0.0000000000000000 F
   0.5000000000000000    0.7157592773437500    0.0000000000000000 F
   0.5000000000000000    0.5000000000000000    0.7842407226562500 F
   0.5000000000000000    0.5000000000000000    0.2157592773437500 F
