Dy2 Th2 Mn8 Ge8
1.0
   4.4562516117219388    0.0000000000000000   -0.0002913524257585
  -0.0004455488209508    6.8142485327288789   -0.0004455196916515
   0.0000000000000000    0.0000000000000000   14.4646492004394531
Th Dy Ge Mn
2 2 8 8
direct
   0.0000000000000000    0.0000000000000000    0.0000000000000000 Th
   0.5000000000000000    0.5000000000000000    0.5000000000000000 Th
   0.0000000000000000    0.5000000000000000    0.5000000000000000 Dy
   0.5000000000000000    0.0000000000000000    0.0000000000000000 Dy
   0.0000000000000000    0.0000000000000000    0.2106323242187500 Ge
   0.0000000000000000    0.0000000000000000    0.7893676757812500 Ge
   0.5000000000000000    0.5000000000000000    0.7106323242187500 Ge
   0.5000000000000000    0.5000000000000000    0.2893676757812500 Ge
   0.0000000000000000    0.5000000000000000    0.9057617187500000 Ge
   0.0000000000000000    0.5000000000000000    0.0942382812500000 Ge
   0.5000000000000000    0.0000000000000000    0.4057617187500000 Ge
   0.5000000000000000    0.0000000000000000    0.5942382812500000 Ge
   0.0000000000000000    0.6881103515625000    0.3034229278564453 Mn
   0.0000000000000000    0.3118896484375000    0.3034229278564453 Mn
   0.0000000000000000    0.6881103515625000    0.6965770721435547 Mn
   0.0000000000000000    0.3118896484375000    0.6965770721435547 Mn
   0.5000000000000000    0.1881103515625000    0.8034229278564453 Mn
   0.5000000000000000    0.8118896484375000    0.8034229278564453 Mn
   0.5000000000000000    0.1881103515625000    0.1965770721435547 Mn
   0.5000000000000000    0.8118896484375000    0.1965770721435547 Mn
