Li2 Mn4 As4 O12
1.0
   6.7358462956036913    0.0000000000000000   -1.3338859739108477
  -0.0006831646933225    8.5827493212271708   -0.0005611453437146
   0.0000000000000000    0.0000000000000000    4.2990489006042480
Li Mn O As
2 4 12 4
direct
   0.0000000000000000    0.1137695312500000    0.5000000000000000 Li
   0.5000000000000000    0.6137695312500000    0.5000000000000000 Li
   0.5000000000000000    0.9641113281250000    0.5000000000000000 Mn
   0.0000000000000000    0.4641113281250000    0.5000000000000000 Mn
   0.0000000000000000    0.7999267578125000    0.5000000000000000 Mn
   0.5000000000000000    0.2999267578125000    0.5000000000000000 Mn
   0.6615600585937500    0.1448211669921875    0.7337036132812500 O
   0.3384399414062500    0.1448211669921875    0.2662963867187500 O
   0.1615600585937500    0.6448211669921875    0.7337036132812500 O
   0.8384399414062500    0.6448211669921875    0.2662963867187500 O
   0.6468200683593750    0.7801208496093750    0.7594451904296875 O
   0.3531799316406250    0.7801208496093750    0.2405548095703125 O
   0.1468200683593750    0.2801208496093750    0.7594451904296875 O
   0.8531799316406250    0.2801208496093750    0.2405548095703125 O
   0.8145904541015625    0.9385375976562500    0.2720947265625000 O
   0.1854095458984375    0.9385375976562500    0.7279052734375000 O
   0.3145904541015625    0.4385375976562500    0.2720947265625000 O
   0.6854095458984375    0.4385375976562500    0.7279052734375000 O
   0.7746582031250000    0.7946777343750000    0.0603637695312500 As
   0.2253417968750000    0.7946777343750000    0.9396362304687500 As
   0.2746582031250000    0.2946777343750000    0.0603637695312500 As
   0.7253417968750000    0.2946777343750000    0.9396362304687500 As
