V4 F14
1.0
   4.4639612511993256    0.0000000000000000   -1.9927372569666670
  -0.0005217417740557    5.1767501457491161   -0.0003384590574290
   0.0000000000000000    0.0000000000000000   10.5739517211914062
F V
14 4
direct
   0.6776123046875000    0.4446105957031250    0.5571289062500000 F
   0.6776123046875000    0.5553894042968750    0.0571289062500000 F
   0.1434936523437500    0.2223906517028809    0.6380615234375000 F
   0.1434936523437500    0.7776093482971191    0.1380615234375000 F
   0.5744018554687500    0.1452941894531250    0.1312255859375000 F
   0.5744018554687500    0.8547058105468750    0.6312255859375000 F
   0.1479492187500000    0.5321884155273438    0.8754272460937500 F
   0.1479492187500000    0.4678115844726562    0.3754272460937500 F
   0.6755981445312500    0.5732421875000000    0.3417968750000000 F
   0.6755981445312500    0.4267578125000000    0.8417968750000000 F
   0.1051635742187500    0.9664611816406250    0.3994750976562500 F
   0.1051635742187500    0.0335388183593750    0.8994750976562500 F
   0.6137695312500000    0.0435333251953125    0.4020996093750000 F
   0.6137695312500000    0.9564666748046875    0.9020996093750000 F
   0.9173431396484375    0.7067871093750000    0.9539794921875000 V
   0.9173431396484375    0.2932128906250000    0.4539794921875000 V
   0.4459838867187500    0.2662963867187500    0.9607543945312500 V
   0.4459838867187500    0.7337036132812500    0.4607543945312500 V
