Cs3 Ni3 O6
1.0
   3.3820490764812234    0.0000000000000000   -0.0002211204142682
  -1.6908326703886385    2.9290511836555404   -0.0002211204142682
   0.0000000000000000    0.0000000000000000   19.0234489440917969
Cs Ni O
3 3 6
direct
   0.0000000000000000    0.0000000000000000    0.0000000000000000 Cs
   0.6666666865348816    0.3333333432674408    0.3333333432674408 Cs
   0.3333333432674408    0.6666666865348816    0.6666666865348816 Cs
   0.3333333432674408    0.6666666865348816    0.1666666716337204 Ni
   0.6666666865348816    0.3333333432674408    0.8333333134651184 Ni
   0.0000000000000000    0.0000000000000000    0.5000000000000000 Ni
   0.3333333432674408    0.6666666865348816    0.4527893066406250 O
   0.6666666865348816    0.3333333432674408    0.5472106933593750 O
   0.0000000000000000    0.0000000000000000    0.7861226797103882 O
   0.3333333730697632    0.6666666865348816    0.8805440664291382 O
   0.6666666865348816    0.3333333730697632    0.1194560527801514 O
   0.0000000000000000    0.0000000000000000    0.2138773798942566 O
