Mg4 Mn4 Si8 O24
1.0
   9.6425737177090536    0.0000000000000000   -3.2668790822379510
  -0.0007802018210037    8.5565528331047691   -0.0005594326020240
   0.0000000000000000    0.0000000000000000    5.7400498390197754
Mn Mg O Si
4 4 24 8
direct
   0.2500000000000000    0.2500000000000000    0.5000000000000000 Mn
   0.7500000000000000    0.2500000000000000    0.0000000000000000 Mn
   0.7500000000000000    0.7500000000000000    0.5000000000000000 Mn
   0.2500000000000000    0.7500000000000000    0.0000000000000000 Mn
   0.5000000000000000    0.2290039062500000    0.2500000000000000 Mg
   0.5000000000000000    0.7709960937500000    0.7500000000000000 Mg
   0.0000000000000000    0.7290039062500000    0.2500000000000000 Mg
   0.0000000000000000    0.2709960937500000    0.7500000000000000 Mg
   0.3521118164062500    0.1066589355468750    0.3373413085937500 O
   0.6478881835937500    0.1066589355468750    0.1626586914062500 O
   0.6478881835937500    0.8933410644531250    0.6626586914062500 O
   0.3521118164062500    0.8933410644531250    0.8373413085937500 O
   0.8521118164062500    0.6066589355468750    0.3373413085937500 O
   0.1478881835937500    0.6066589355468750    0.1626586914062500 O
   0.1478881835937500    0.3933410644531250    0.6626586914062500 O
   0.8521118164062500    0.3933410644531250    0.8373413085937500 O
   0.8809204101562500    0.7696533203125000    0.8901367187500000 O
   0.1190795898437500    0.7696533203125000    0.6098632812500000 O
   0.1190795898437500    0.2303466796875000    0.1098632812500000 O
   0.8809204101562500    0.2303466796875000    0.3901367187500000 O
   0.3809204101562500    0.2696533203125000    0.8901367187500000 O
   0.6190795898437500    0.2696533203125000    0.6098632812500000 O
   0.6190795898437500    0.7303466796875000    0.1098632812500000 O
   0.3809204101562500    0.7303466796875000    0.3901367187500000 O
   0.6455192565917969    0.5678100585937500    0.5144042968750000 O
   0.3544807434082031    0.5678100585937500    0.9855957031250000 O
   0.3544807434082031    0.4321899414062500    0.4855957031250000 O
   0.6455192565917969    0.4321899414062500    0.0144042968750000 O
   0.1455192565917969    0.0678100585937500    0.5144042968750000 O
   0.8544807434082031    0.0678100585937500    0.9855957031250000 O
   0.8544807434082031    0.9321899414062500    0.4855957031250000 O
   0.1455192565917969    0.9321899414062500    0.0144042968750000 O
   0.6944274902343750    0.4285888671875000    0.7232284545898438 Si
   0.3055725097656250    0.4285888671875000    0.7767715454101562 Si
   0.3055725097656250    0.5714111328125000    0.2767715454101562 Si
   0.6944274902343750    0.5714111328125000    0.2232284545898438 Si
   0.1944274902343750    0.9285888671875000    0.7232284545898438 Si
   0.8055725097656250    0.9285888671875000    0.7767715454101562 Si
   0.8055725097656250    0.0714111328125000    0.2767715454101562 Si
   0.1944274902343750    0.0714111328125000    0.2232284545898438 Si
