Li2 Ga4 Te8
1.0
   5.7924508924659177    0.0000000000000000   -0.0003787139429398
  -0.0003787387042960    5.7924508800840258   -0.0003787139429398
   0.0000000000000000    0.0000000000000000   12.0804481506347656
Li Ga Te
2 4 8
direct
   0.0000000000000000    0.0000000000000000    0.5000000000000000 Li
   0.5000000000000000    0.5000000000000000    0.0000000000000000 Li
   0.0000000000000000    0.0000000000000000    0.7540130615234375 Ga
   0.0000000000000000    0.0000000000000000    0.2459869384765625 Ga
   0.5000000000000000    0.5000000000000000    0.2540130615234375 Ga
   0.5000000000000000    0.5000000000000000    0.7459869384765625 Ga
   0.2630615234375000    0.2630615234375000    0.6226806640625000 Te
   0.7369384765625000    0.7369384765625000    0.6226806640625000 Te
   0.2630615234375000    0.7369384765625000    0.3773193359375000 Te
   0.7369384765625000    0.2630615234375000    0.3773193359375000 Te
   0.7630615234375000    0.7630615234375000    0.1226806640625000 Te
   0.2369384765625000    0.2369384765625000    0.1226806640625000 Te
   0.7630615234375000    0.2369384765625000    0.8773193359375000 Te
   0.2369384765625000    0.7630615234375000    0.8773193359375000 Te
