Pr4 Si4 Re8 C4
1.0
   3.9977497969060019    0.0000000000000000   -0.0002613752997789
  -0.0007179291892441   10.9800490863621363   -0.0007178822521337
   0.0000000000000000    0.0000000000000000    7.1679487228393555
C Si Pr Re
4 4 4 8
direct
   0.0000000000000000    0.0000000000000000    0.0000000000000000 C
   0.0000000000000000    0.0000000000000000    0.5000000000000000 C
   0.5000000000000000    0.5000000000000000    0.0000000000000000 C
   0.5000000000000000    0.5000000000000000    0.5000000000000000 C
   0.5000000000000000    0.7667846679687500    0.2500000000000000 Si
   0.5000000000000000    0.2332153320312500    0.7500000000000000 Si
   0.0000000000000000    0.2667846679687500    0.2500000000000000 Si
   0.0000000000000000    0.7332153320312500    0.7500000000000000 Si
   0.0000000000000000    0.5462646484375000    0.2500000000000000 Pr
   0.0000000000000000    0.4537353515625000    0.7500000000000000 Pr
   0.5000000000000000    0.0462646484375000    0.2500000000000000 Pr
   0.5000000000000000    0.9537353515625000    0.7500000000000000 Pr
   0.0000000000000000    0.8273620605468750    0.4375839233398438 Re
   0.0000000000000000    0.1726379394531250    0.9375839233398438 Re
   0.0000000000000000    0.8273620605468750    0.0624160766601562 Re
   0.0000000000000000    0.1726379394531250    0.5624160766601562 Re
   0.5000000000000000    0.3273620605468750    0.4375839233398438 Re
   0.5000000000000000    0.6726379394531250    0.9375839233398438 Re
   0.5000000000000000    0.3273620605468750    0.0624160766601562 Re
   0.5000000000000000    0.6726379394531250    0.5624160766601562 Re
