Tm8 Cd4 Ga4
1.0
   7.1941490019578449    0.0000000000000000   -0.0004703578131619
  -0.0004703885664456    7.1941489865796955   -0.0004703578131619
   0.0000000000000000    0.0000000000000000    7.1941490173339844
Cd Ga Tm
4 4 8
direct
   0.0000000000000000    0.0000000000000000    0.0000000000000000 Cd
   0.0000000000000000    0.5000000000000000    0.5000000000000000 Cd
   0.5000000000000000    0.0000000000000000    0.5000000000000000 Cd
   0.5000000000000000    0.5000000000000000    0.0000000000000000 Cd
   0.5000000000000000    0.0000000000000000    0.0000000000000000 Ga
   0.0000000000000000    0.5000000000000000    0.0000000000000000 Ga
   0.0000000000000000    0.0000000000000000    0.5000000000000000 Ga
   0.5000000000000000    0.5000000000000000    0.5000000000000000 Ga
   0.2500000000000000    0.2500000000000000    0.2500000000000000 Tm
   0.7500000000000000    0.7500000000000000    0.2500000000000000 Tm
   0.7500000000000000    0.2500000000000000    0.7500000000000000 Tm
   0.2500000000000000    0.7500000000000000    0.7500000000000000 Tm
   0.2500000000000000    0.2500000000000000    0.7500000000000000 Tm
   0.7500000000000000    0.7500000000000000    0.7500000000000000 Tm
   0.2500000000000000    0.7500000000000000    0.2500000000000000 Tm
   0.7500000000000000    0.2500000000000000    0.2500000000000000 Tm
