Ho4 Tl4 Cu8
1.0
   6.5522479870944359    0.0000000000000000   -0.0004283899365533
  -0.0004284179458622    6.5522479730884085   -0.0004283899365533
   0.0000000000000000    0.0000000000000000    6.5522480010986328
Tl Ho Cu
4 4 8
direct
   0.0000000000000000    0.0000000000000000    0.0000000000000000 Tl
   0.0000000000000000    0.5000000000000000    0.5000000000000000 Tl
   0.5000000000000000    0.0000000000000000    0.5000000000000000 Tl
   0.5000000000000000    0.5000000000000000    0.0000000000000000 Tl
   0.5000000000000000    0.0000000000000000    0.0000000000000000 Ho
   0.0000000000000000    0.5000000000000000    0.0000000000000000 Ho
   0.0000000000000000    0.0000000000000000    0.5000000000000000 Ho
   0.5000000000000000    0.5000000000000000    0.5000000000000000 Ho
   0.2500000000000000    0.2500000000000000    0.2500000000000000 Cu
   0.7500000000000000    0.7500000000000000    0.2500000000000000 Cu
   0.7500000000000000    0.2500000000000000    0.7500000000000000 Cu
   0.2500000000000000    0.7500000000000000    0.7500000000000000 Cu
   0.2500000000000000    0.2500000000000000    0.7500000000000000 Cu
   0.7500000000000000    0.7500000000000000    0.7500000000000000 Cu
   0.2500000000000000    0.7500000000000000    0.2500000000000000 Cu
   0.7500000000000000    0.2500000000000000    0.2500000000000000 Cu
