Li3 Al3 Ni9 S6
1.0
   4.9933509719936682    0.0000000000000000   -0.0003264683068001
  -2.4963922069835851    4.3245323306019738   -0.0003264683068001
   0.0000000000000000    0.0000000000000000   12.1066484451293945
Al Li S Ni
3 3 6 9
direct
   0.0000000000000000    0.0000000000000000    0.0000000000000000 Al
   0.6666666865348816    0.3333333432674408    0.3333333432674408 Al
   0.3333333432674408    0.6666666865348816    0.6666666865348816 Al
   0.3333333432674408    0.6666666865348816    0.1666666716337204 Li
   0.6666666865348816    0.3333333432674408    0.8333333134651184 Li
   0.0000000000000000    0.0000000000000000    0.5000000000000000 Li
   0.0000000000000000    0.0000000000000000    0.7082519531250000 S
   0.0000000000000000    0.0000000000000000    0.2917480468750000 S
   0.6666666865348816    0.3333333432674408    0.0415853261947632 S
   0.6666666865348816    0.3333333432674408    0.6250814199447632 S
   0.3333333432674408    0.6666666865348816    0.3749186992645264 S
   0.3333333432674408    0.6666666865348816    0.9584147334098816 S
   0.3333333432674408    0.1666666716337204    0.1666666716337204 Ni
   0.8333333134651184    0.1666666716337204    0.1666666716337204 Ni
   0.8333333134651184    0.6666666269302368    0.1666666716337204 Ni
   0.1666666716337204    0.3333333432674408    0.8333333134651184 Ni
   0.1666666716337204    0.8333333134651184    0.8333333134651184 Ni
   0.6666666269302368    0.8333333134651184    0.8333333134651184 Ni
   0.0000000000000000    0.5000000000000000    0.5000000000000000 Ni
   0.5000000000000000    0.5000000000000000    0.5000000000000000 Ni
   0.5000000000000000    0.0000000000000000    0.5000000000000000 Ni
