Tb1 Co3 B2
1.0
   5.1767501720411397    0.0000000000000000   -0.0003384590574290
  -2.5880814025425214    4.4833667034430169   -0.0003384590574290
   0.0000000000000000    0.0000000000000000    2.8056509494781494
Tb B Co
1 2 3
direct
   0.0000000000000000    0.0000000000000000    0.0000000000000000 Tb
   0.6666666865348816    0.3333333432674408    0.0000000000000000 B
   0.3333333134651184    0.6666666269302368    0.0000000000000000 B
   0.5000000000000000    0.0000000000000000    0.5000000000000000 Co
   0.0000000000000000    0.5000000000000000    0.5000000000000000 Co
   0.5000000000000000    0.5000000000000000    0.5000000000000000 Co
