Tb2 B6 Rh9
1.0
   5.5697488665747139    0.0000000000000000   -0.0003641535497847
  -2.7845584545044080    4.8237264277898610   -0.0003641535497847
   0.0000000000000000    0.0000000000000000    8.6351499557495117
B Tb Rh B Rh
2 2 3 4 6
direct
   0.6666666865348816    0.3333333432674408    0.0000000000000000 B
   0.3333333134651184    0.6666666269302368    0.0000000000000000 B
   0.0000000000000000    0.0000000000000000    0.7008056640625000 Tb
   0.0000000000000000    0.0000000000000000    0.2991943359375000 Tb
   0.5000000000000000    0.0000000000000000    0.5000000000000000 Rh
   0.0000000000000000    0.5000000000000000    0.5000000000000000 Rh
   0.5000000000000000    0.5000000000000000    0.5000000000000000 Rh
   0.6666666865348816    0.3333333432674408    0.3359375000000000 B
   0.3333333134651184    0.6666666269302368    0.3359375000000000 B
   0.3333333432674408    0.6666666865348816    0.6640625000000000 B
   0.6666666269302368    0.3333333134651184    0.6640625000000000 B
   0.5000000000000000    0.0000000000000000    0.1680297851562500 Rh
   0.0000000000000000    0.5000000000000000    0.1680297851562500 Rh
   0.5000000000000000    0.5000000000000000    0.1680297851562500 Rh
   0.0000000000000000    0.5000000000000000    0.8319702148437500 Rh
   0.5000000000000000    0.0000000000000000    0.8319702148437500 Rh
   0.5000000000000000    0.5000000000000000    0.8319702148437500 Rh
