Ni16 Pb8
1.0
   7.5216488677434716    0.0000000000000000   -0.0004917699524767
  -0.0004918021057449    7.5216488516652609   -0.0004917699524767
   0.0000000000000000    0.0000000000000000    7.5216488838195801
Pb Ni
8 16
direct
   0.3750000000000000    0.8750000000000000    0.8750000000000000 Pb
   0.3750000000000000    0.3750000000000000    0.3750000000000000 Pb
   0.8750000000000000    0.3750000000000000    0.8750000000000000 Pb
   0.8750000000000000    0.8750000000000000    0.3750000000000000 Pb
   0.6250000000000000    0.6250000000000000    0.6250000000000000 Pb
   0.1250000000000000    0.6250000000000000    0.1250000000000000 Pb
   0.1250000000000000    0.1250000000000000    0.6250000000000000 Pb
   0.6250000000000000    0.1250000000000000    0.1250000000000000 Pb
   0.0000000000000000    0.0000000000000000    0.0000000000000000 Ni
   0.7500000000000000    0.2500000000000000    0.5000000000000000 Ni
   0.2500000000000000    0.5000000000000000    0.7500000000000000 Ni
   0.5000000000000000    0.7500000000000000    0.2500000000000000 Ni
   0.2500000000000000    0.7500000000000000    0.5000000000000000 Ni
   0.7500000000000000    0.5000000000000000    0.2500000000000000 Ni
   0.5000000000000000    0.2500000000000000    0.7500000000000000 Ni
   0.0000000000000000    0.5000000000000000    0.5000000000000000 Ni
   0.7500000000000000    0.7500000000000000    0.0000000000000000 Ni
   0.2500000000000000    0.0000000000000000    0.2500000000000000 Ni
   0.2500000000000000    0.2500000000000000    0.0000000000000000 Ni
   0.7500000000000000    0.0000000000000000    0.7500000000000000 Ni
   0.5000000000000000    0.0000000000000000    0.5000000000000000 Ni
   0.0000000000000000    0.7500000000000000    0.7500000000000000 Ni
   0.0000000000000000    0.2500000000000000    0.2500000000000000 Ni
   0.5000000000000000    0.5000000000000000    0.0000000000000000 Ni
