K8 Gd4 Ag4 Cl24
1.0
  10.6525487672102095    0.0000000000000000   -0.0006964700816430
  -0.0006965156187669   10.6525487444394145   -0.0006964700816430
   0.0000000000000000    0.0000000000000000   10.6525487899780273
Gd Ag K Cl
4 4 8 24
direct
   0.0000000000000000    0.0000000000000000    0.0000000000000000 Gd
   0.0000000000000000    0.5000000000000000    0.5000000000000000 Gd
   0.5000000000000000    0.0000000000000000    0.5000000000000000 Gd
   0.5000000000000000    0.5000000000000000    0.0000000000000000 Gd
   0.5000000000000000    0.0000000000000000    0.0000000000000000 Ag
   0.0000000000000000    0.5000000000000000    0.0000000000000000 Ag
   0.0000000000000000    0.0000000000000000    0.5000000000000000 Ag
   0.5000000000000000    0.5000000000000000    0.5000000000000000 Ag
   0.2500000000000000    0.2500000000000000    0.2500000000000000 K
   0.7500000000000000    0.7500000000000000    0.2500000000000000 K
   0.7500000000000000    0.2500000000000000    0.7500000000000000 K
   0.2500000000000000    0.7500000000000000    0.7500000000000000 K
   0.2500000000000000    0.2500000000000000    0.7500000000000000 K
   0.7500000000000000    0.7500000000000000    0.7500000000000000 K
   0.2500000000000000    0.7500000000000000    0.2500000000000000 K
   0.7500000000000000    0.2500000000000000    0.2500000000000000 K
   0.2469787597656250    0.0000000000000000    0.0000000000000000 Cl
   0.7530212402343750    0.0000000000000000    0.0000000000000000 Cl
   0.0000000000000000    0.2469787597656250    0.0000000000000000 Cl
   0.0000000000000000    0.7530212402343750    0.0000000000000000 Cl
   0.0000000000000000    0.0000000000000000    0.2469787597656250 Cl
   0.0000000000000000    0.0000000000000000    0.7530212402343750 Cl
   0.2469787597656250    0.5000000000000000    0.5000000000000000 Cl
   0.7530212402343750    0.5000000000000000    0.5000000000000000 Cl
   0.0000000000000000    0.7469787597656250    0.5000000000000000 Cl
   0.0000000000000000    0.2530212402343750    0.5000000000000000 Cl
   0.0000000000000000    0.5000000000000000    0.7469787597656250 Cl
   0.0000000000000000    0.5000000000000000    0.2530212402343750 Cl
   0.7469787597656250    0.0000000000000000    0.5000000000000000 Cl
   0.2530212402343750    0.0000000000000000    0.5000000000000000 Cl
   0.5000000000000000    0.2469787597656250    0.5000000000000000 Cl
   0.5000000000000000    0.7530212402343750    0.5000000000000000 Cl
   0.5000000000000000    0.0000000000000000    0.7469787597656250 Cl
   0.5000000000000000    0.0000000000000000    0.2530212402343750 Cl
   0.7469787597656250    0.5000000000000000    0.0000000000000000 Cl
   0.2530212402343750    0.5000000000000000    0.0000000000000000 Cl
   0.5000000000000000    0.7469787597656250    0.0000000000000000 Cl
   0.5000000000000000    0.2530212402343750    0.0000000000000000 Cl
   0.5000000000000000    0.5000000000000000    0.2469787597656250 Cl
   0.5000000000000000    0.5000000000000000    0.7530212402343750 Cl
