Eu3 Mg3 Pd3
1.0
   7.6526508167737823    0.0000000000000000   -0.0005003349391414
  -3.8258912639848108    6.6276406480461167   -0.0005003349391414
   0.0000000000000000    0.0000000000000000    4.7968535423278809
Pd Eu Mg
3 3 3
direct
   0.0000000000000000    0.0000000000000000    0.0000000000000000 Pd
   0.6666666865348816    0.3333333432674408    0.5000000000000000 Pd
   0.3333333432674408    0.6666666865348816    0.5000000000000000 Pd
   0.5831909179687500    0.5831909179687500    0.0000000000000000 Eu
   0.4168090820312500    0.0000000000000000    0.0000000000000000 Eu
   0.0000000000000000    0.4168090820312500    0.0000000000000000 Eu
   0.7603759765625000    0.0000000000000000    0.5000000000000000 Mg
   0.0000000000000000    0.7603759765625000    0.5000000000000000 Mg
   0.2396240234375000    0.2396240234375000    0.5000000000000000 Mg
