La3 Eu3 S6
1.0
   4.1156496913683682    0.0000000000000000   -0.0002690836661912
  -2.0575913597566000    3.5643919787693852   -0.0002690836661912
   0.0000000000000000    0.0000000000000000   19.7177467346191406
Eu La S
3 3 6
direct
   0.0000000000000000    0.0000000000000000    0.0000000000000000 Eu
   0.6666666865348816    0.3333333432674408    0.3333333432674408 Eu
   0.3333333432674408    0.6666666865348816    0.6666666865348816 Eu
   0.3333333432674408    0.6666666865348816    0.1666666716337204 La
   0.6666666865348816    0.3333333432674408    0.8333333134651184 La
   0.0000000000000000    0.0000000000000000    0.5000000000000000 La
   0.6666666865348816    0.3333333432674408    0.5820922851562500 S
   0.3333333432674408    0.6666666865348816    0.4179077148437500 S
   0.3333333730697632    0.6666666865348816    0.9154256582260132 S
   0.0000000000000000    0.0000000000000000    0.7512410879135132 S
   0.0000000000000000    0.0000000000000000    0.2487590312957764 S
   0.6666666865348816    0.3333333730697632    0.0845744013786316 S
