La2 Al8 Zn2
1.0
   4.6396508117694104    0.0000000000000000   -0.0003033431763875
  -0.0003033630097962    4.6396508018517340   -0.0003033431763875
   0.0000000000000000    0.0000000000000000   10.3250494003295898
Al Zn Al La Al
2 2 2 2 4
direct
   0.7500000000000000    0.2500000000000000    0.0000000000000000 Al
   0.2500000000000000    0.7500000000000000    0.0000000000000000 Al
   0.7500000000000000    0.2500000000000000    0.5000000000000000 Zn
   0.2500000000000000    0.7500000000000000    0.5000000000000000 Zn
   0.7500000000000000    0.7500000000000000    0.1549682617187500 Al
   0.2500000000000000    0.2500000000000000    0.8450317382812500 Al
   0.2500000000000000    0.2500000000000000    0.1666870117187500 La
   0.7500000000000000    0.7500000000000000    0.8333129882812500 La
   0.7500000000000000    0.2500000000000000    0.2808837890625000 Al
   0.2500000000000000    0.7500000000000000    0.2808837890625000 Al
   0.2500000000000000    0.7500000000000000    0.7191162109375000 Al
   0.7500000000000000    0.2500000000000000    0.7191162109375000 Al
