K12 Se4 O8
1.0
  10.1069647422538971    0.0000000000000000   -3.1956854635214116
  -0.0006665814482933    7.4692515869823106   -0.0004883441885125
   0.0000000000000000    0.0000000000000000    7.2465462684631348
K O Se K
4 8 4 8
direct
   0.0000000000000000    0.2622070312500000    0.0000000000000000 K
   0.0000000000000000    0.7377929687500000    0.0000000000000000 K
   0.5000000000000000    0.7622070312500000    0.0000000000000000 K
   0.5000000000000000    0.2377929687500000    0.0000000000000000 K
   0.6548461914062500    0.0000000000000000    0.2770996093750000 O
   0.3451538085937500    0.0000000000000000    0.7229003906250000 O
   0.1548461914062500    0.5000000000000000    0.2770996093750000 O
   0.8451538085937500    0.5000000000000000    0.7229003906250000 O
   0.0116348266601562    0.0000000000000000    0.7307434082031250 O
   0.9883651733398438    0.0000000000000000    0.2692565917968750 O
   0.5116348266601562    0.5000000000000000    0.7307434082031250 O
   0.4883651733398438    0.5000000000000000    0.2692565917968750 O
   0.7879943847656250    0.0000000000000000    0.0913848876953125 Se
   0.2120056152343750    0.0000000000000000    0.9086151123046875 Se
   0.2879943847656250    0.5000000000000000    0.0913848876953125 Se
   0.7120056152343750    0.5000000000000000    0.9086151123046875 Se
   0.3536376953125000    0.7534561157226562    0.3963623046875000 K
   0.6463623046875000    0.7534561157226562    0.6036376953125000 K
   0.6463623046875000    0.2465438842773438    0.6036376953125000 K
   0.3536376953125000    0.2465438842773438    0.3963623046875000 K
   0.8536376953125000    0.2534561157226562    0.3963623046875000 K
   0.1463623046875000    0.2534561157226562    0.6036376953125000 K
   0.1463623046875000    0.7465438842773438    0.6036376953125000 K
   0.8536376953125000    0.7465438842773438    0.3963623046875000 K
