Fe3 Cu6 Sn9 S24
1.0
   7.3775482020053165    0.0000000000000000   -0.0004823485637908
  -3.6883555635141896    6.3893857850348814   -0.0004823485637908
   0.0000000000000000    0.0000000000000000   17.1108512878417969
Fe S Cu Sn S
3 6 6 9 18
direct
   0.3333333432674408    0.6666666865348816    0.1666666716337204 Fe
   0.6666666865348816    0.3333333432674408    0.8333333134651184 Fe
   0.0000000000000000    0.0000000000000000    0.5000000000000000 Fe
   0.6666666865348816    0.3333333432674408    0.5827026367187500 S
   0.3333333432674408    0.6666666865348816    0.4172973632812500 S
   0.3333333730697632    0.6666666865348816    0.9160360097885132 S
   0.0000000000000000    0.0000000000000000    0.7506307363510132 S
   0.0000000000000000    0.0000000000000000    0.2493693828582764 S
   0.6666666865348816    0.3333333730697632    0.0839640498161316 S
   0.0000000000000000    0.0000000000000000    0.1145019531250000 Cu
   0.0000000000000000    0.0000000000000000    0.8854980468750000 Cu
   0.6666666865348816    0.3333333432674408    0.4478352963924408 Cu
   0.6666666865348816    0.3333333432674408    0.2188313901424408 Cu
   0.3333333432674408    0.6666666865348816    0.7811686396598816 Cu
   0.3333333432674408    0.6666666865348816    0.5521647334098816 Cu
   0.5000000000000000    0.5000000000000000    0.0000000000000000 Sn
   0.5000000000000000    0.0000000000000000    0.0000000000000000 Sn
   0.0000000000000000    0.5000000000000000    0.0000000000000000 Sn
   0.1666667461395264    0.8333333730697632    0.3333333432674408 Sn
   0.1666666865348816    0.3333333432674408    0.3333333432674408 Sn
   0.6666666865348816    0.8333333730697632    0.3333333432674408 Sn
   0.8333333730697632    0.1666667461395264    0.6666666865348816 Sn
   0.8333333730697632    0.6666666865348816    0.6666666865348816 Sn
   0.3333333432674408    0.1666666865348816    0.6666666865348816 Sn
   0.3041076660156250    0.1520538330078125    0.4239501953125000 S
   0.8479461669921875    0.1520538330078125    0.4239501953125000 S
   0.8479461669921875    0.6958923339843750    0.4239501953125000 S
   0.1520538330078125    0.3041076660156250    0.5760498046875000 S
   0.1520538330078125    0.8479461669921875    0.5760498046875000 S
   0.6958923339843750    0.8479461669921875    0.5760498046875000 S
   0.9707743525505066    0.4853871762752533    0.7572835683822632 S
   0.5146128535270691    0.4853871762752533    0.7572835683822632 S
   0.5146128535270691    0.0292256772518158    0.7572835683822632 S
   0.8187205195426941    0.6374410390853882    0.9093831777572632 S
   0.8187205195426941    0.1812795102596283    0.9093831777572632 S
   0.3625590205192566    0.1812795102596283    0.9093831777572632 S
   0.6374410390853882    0.8187205195426941    0.0906169414520264 S
   0.1812795102596283    0.8187205195426941    0.0906169414520264 S
   0.1812795102596283    0.3625590205192566    0.0906169414520264 S
   0.4853871762752533    0.9707743525505066    0.2427164912223816 S
   0.4853871762752533    0.5146128535270691    0.2427164912223816 S
   0.0292256772518158    0.5146128535270691    0.2427164912223816 S
