Rb8 Tl4 Sb4 Br24
1.0
  11.5695485821448258    0.0000000000000000   -0.0007564240841949
  -0.0007564735412760   11.5695485574138601   -0.0007564240841949
   0.0000000000000000    0.0000000000000000   11.5695486068725586
Sb Tl Rb Br
4 4 8 24
direct
   0.0000000000000000    0.0000000000000000    0.0000000000000000 Sb
   0.0000000000000000    0.5000000000000000    0.5000000000000000 Sb
   0.5000000000000000    0.0000000000000000    0.5000000000000000 Sb
   0.5000000000000000    0.5000000000000000    0.0000000000000000 Sb
   0.5000000000000000    0.0000000000000000    0.0000000000000000 Tl
   0.0000000000000000    0.5000000000000000    0.0000000000000000 Tl
   0.0000000000000000    0.0000000000000000    0.5000000000000000 Tl
   0.5000000000000000    0.5000000000000000    0.5000000000000000 Tl
   0.2500000000000000    0.2500000000000000    0.2500000000000000 Rb
   0.7500000000000000    0.7500000000000000    0.2500000000000000 Rb
   0.7500000000000000    0.2500000000000000    0.7500000000000000 Rb
   0.2500000000000000    0.7500000000000000    0.7500000000000000 Rb
   0.2500000000000000    0.2500000000000000    0.7500000000000000 Rb
   0.7500000000000000    0.7500000000000000    0.7500000000000000 Rb
   0.2500000000000000    0.7500000000000000    0.2500000000000000 Rb
   0.7500000000000000    0.2500000000000000    0.2500000000000000 Rb
   0.2350463867187500    0.0000000000000000    0.0000000000000000 Br
   0.7649536132812500    0.0000000000000000    0.0000000000000000 Br
   0.0000000000000000    0.2350463867187500    0.0000000000000000 Br
   0.0000000000000000    0.7649536132812500    0.0000000000000000 Br
   0.0000000000000000    0.0000000000000000    0.2350463867187500 Br
   0.0000000000000000    0.0000000000000000    0.7649536132812500 Br
   0.2350463867187500    0.5000000000000000    0.5000000000000000 Br
   0.7649536132812500    0.5000000000000000    0.5000000000000000 Br
   0.0000000000000000    0.7350463867187500    0.5000000000000000 Br
   0.0000000000000000    0.2649536132812500    0.5000000000000000 Br
   0.0000000000000000    0.5000000000000000    0.7350463867187500 Br
   0.0000000000000000    0.5000000000000000    0.2649536132812500 Br
   0.7350463867187500    0.0000000000000000    0.5000000000000000 Br
   0.2649536132812500    0.0000000000000000    0.5000000000000000 Br
   0.5000000000000000    0.2350463867187500    0.5000000000000000 Br
   0.5000000000000000    0.7649536132812500    0.5000000000000000 Br
   0.5000000000000000    0.0000000000000000    0.7350463867187500 Br
   0.5000000000000000    0.0000000000000000    0.2649536132812500 Br
   0.7350463867187500    0.5000000000000000    0.0000000000000000 Br
   0.2649536132812500    0.5000000000000000    0.0000000000000000 Br
   0.5000000000000000    0.7350463867187500    0.0000000000000000 Br
   0.5000000000000000    0.2649536132812500    0.0000000000000000 Br
   0.5000000000000000    0.5000000000000000    0.2350463867187500 Br
   0.5000000000000000    0.5000000000000000    0.7649536132812500 Br
