V4 Ni4 S12
1.0
   6.2378506527139113    0.0000000000000000   -0.0004078344486669
  -0.0002459746172222    3.7619495231026012   -0.0002459585357785
   0.0000000000000000    0.0000000000000000   12.7616481781005859
S V Ni
12 4 4
direct
   0.1111450195312500    0.2500000000000000    0.4107360839843750 S
   0.3888549804687500    0.7500000000000000    0.9107360839843750 S
   0.8888549804687500    0.7500000000000000    0.5892639160156250 S
   0.6111450195312500    0.2500000000000000    0.0892639160156250 S
   0.1030883789062500    0.2500000000000000    0.7857055664062500 S
   0.3969116210937500    0.7500000000000000    0.2857055664062500 S
   0.8969116210937500    0.7500000000000000    0.2142944335937500 S
   0.6030883789062500    0.2500000000000000    0.7142944335937500 S
   0.6420593261718750    0.2500000000000000    0.4352722167968750 S
   0.8579406738281250    0.7500000000000000    0.9352722167968750 S
   0.3579406738281250    0.7500000000000000    0.5647277832031250 S
   0.1420593261718750    0.2500000000000000    0.0647277832031250 S
   0.6320800781250000    0.2500000000000000    0.9031143188476562 V
   0.8679199218750000    0.7500000000000000    0.4031143188476562 V
   0.3679199218750000    0.7500000000000000    0.0968856811523438 V
   0.1320800781250000    0.2500000000000000    0.5968856811523438 V
   0.6674194335937500    0.2500000000000000    0.2626800537109375 Ni
   0.8325805664062500    0.7500000000000000    0.7626800537109375 Ni
   0.3325805664062500    0.7500000000000000    0.7373199462890625 Ni
   0.1674194335937500    0.2500000000000000    0.2373199462890625 Ni
