Li2 Co4 S4
1.0
   3.1593470505900196    0.0000000000000000   -0.0002065600211131
  -1.5794942916060459    2.7361782779738189   -0.0002065600211131
   0.0000000000000000    0.0000000000000000   14.0454502105712891
Co Li Co S
2 2 2 4
direct
   0.0000000000000000    0.0000000000000000    0.0000000000000000 Co
   0.0000000000000000    0.0000000000000000    0.5000000000000000 Co
   0.0000000000000000    0.0000000000000000    0.2500000000000000 Li
   0.0000000000000000    0.0000000000000000    0.7500000000000000 Li
   0.3333333432674408    0.6666666865348816    0.2500000000000000 Co
   0.6666666269302368    0.3333333134651184    0.7500000000000000 Co
   0.3333333432674408    0.6666666865348816    0.8791656494140625 S
   0.6666666269302368    0.3333333134651184    0.3791656494140625 S
   0.6666666865348816    0.3333333432674408    0.1208343505859375 S
   0.3333333134651184    0.6666666269302368    0.6208343505859375 S
