U4 Ga2 C4
1.0
   3.7226469437189578    0.0000000000000000   -0.0002433889088403
  -0.0002434048222747    3.7226469357614604   -0.0002433889088403
   0.0000000000000000    0.0000000000000000   12.1852455139160156
Ga C U
2 4 4
direct
   0.0000000000000000    0.0000000000000000    0.0000000000000000 Ga
   0.5000000000000000    0.5000000000000000    0.5000000000000000 Ga
   0.5000000000000000    0.5000000000000000    0.3411865234375000 C
   0.5000000000000000    0.5000000000000000    0.6588134765625000 C
   0.0000000000000000    0.0000000000000000    0.8411865234375000 C
   0.0000000000000000    0.0000000000000000    0.1588134765625000 C
   0.0000000000000000    0.0000000000000000    0.3540649414062500 U
   0.0000000000000000    0.0000000000000000    0.6459350585937500 U
   0.5000000000000000    0.5000000000000000    0.8540649414062500 U
   0.5000000000000000    0.5000000000000000    0.1459350585937500 U
