Dy4 Pd8 Au4
1.0
   6.7618512962777961    0.0000000000000000   -0.0004420939276873
  -0.0004421228330007    6.7618512818237226   -0.0004420939276873
   0.0000000000000000    0.0000000000000000    6.7618513107299805
Dy Au Pd
4 4 8
direct
   0.0000000000000000    0.0000000000000000    0.0000000000000000 Dy
   0.0000000000000000    0.5000000000000000    0.5000000000000000 Dy
   0.5000000000000000    0.0000000000000000    0.5000000000000000 Dy
   0.5000000000000000    0.5000000000000000    0.0000000000000000 Dy
   0.5000000000000000    0.0000000000000000    0.0000000000000000 Au
   0.0000000000000000    0.5000000000000000    0.0000000000000000 Au
   0.0000000000000000    0.0000000000000000    0.5000000000000000 Au
   0.5000000000000000    0.5000000000000000    0.5000000000000000 Au
   0.2500000000000000    0.2500000000000000    0.2500000000000000 Pd
   0.7500000000000000    0.7500000000000000    0.2500000000000000 Pd
   0.7500000000000000    0.2500000000000000    0.7500000000000000 Pd
   0.2500000000000000    0.7500000000000000    0.7500000000000000 Pd
   0.2500000000000000    0.2500000000000000    0.7500000000000000 Pd
   0.7500000000000000    0.7500000000000000    0.7500000000000000 Pd
   0.2500000000000000    0.7500000000000000    0.2500000000000000 Pd
   0.7500000000000000    0.2500000000000000    0.2500000000000000 Pd
