Sr8 Y4 Fe4 O24
1.0
   8.1373538797026637    0.0000000000000000   -0.0005320251185706
  -0.0005320599038319    8.1373538623083270   -0.0005320251185706
   0.0000000000000000    0.0000000000000000    8.1373538970947266
Fe Y Sr O
4 4 8 24
direct
   0.0000000000000000    0.0000000000000000    0.0000000000000000 Fe
   0.0000000000000000    0.5000000000000000    0.5000000000000000 Fe
   0.5000000000000000    0.0000000000000000    0.5000000000000000 Fe
   0.5000000000000000    0.5000000000000000    0.0000000000000000 Fe
   0.5000000000000000    0.0000000000000000    0.0000000000000000 Y
   0.0000000000000000    0.5000000000000000    0.0000000000000000 Y
   0.0000000000000000    0.0000000000000000    0.5000000000000000 Y
   0.5000000000000000    0.5000000000000000    0.5000000000000000 Y
   0.2500000000000000    0.2500000000000000    0.2500000000000000 Sr
   0.7500000000000000    0.7500000000000000    0.2500000000000000 Sr
   0.7500000000000000    0.2500000000000000    0.7500000000000000 Sr
   0.2500000000000000    0.7500000000000000    0.7500000000000000 Sr
   0.2500000000000000    0.2500000000000000    0.7500000000000000 Sr
   0.7500000000000000    0.7500000000000000    0.7500000000000000 Sr
   0.2500000000000000    0.7500000000000000    0.2500000000000000 Sr
   0.7500000000000000    0.2500000000000000    0.2500000000000000 Sr
   0.7746219635009766    0.0000000000000000    0.0000000000000000 O
   0.2253780364990234    0.0000000000000000    0.0000000000000000 O
   0.0000000000000000    0.7746219635009766    0.0000000000000000 O
   0.0000000000000000    0.2253780364990234    0.0000000000000000 O
   0.0000000000000000    0.0000000000000000    0.7746219635009766 O
   0.0000000000000000    0.0000000000000000    0.2253780364990234 O
   0.7746219635009766    0.5000000000000000    0.5000000000000000 O
   0.2253780364990234    0.5000000000000000    0.5000000000000000 O
   0.0000000000000000    0.2746219635009766    0.5000000000000000 O
   0.0000000000000000    0.7253780364990234    0.5000000000000000 O
   0.0000000000000000    0.5000000000000000    0.2746219635009766 O
   0.0000000000000000    0.5000000000000000    0.7253780364990234 O
   0.2746219635009766    0.0000000000000000    0.5000000000000000 O
   0.7253780364990234    0.0000000000000000    0.5000000000000000 O
   0.5000000000000000    0.7746219635009766    0.5000000000000000 O
   0.5000000000000000    0.2253780364990234    0.5000000000000000 O
   0.5000000000000000    0.0000000000000000    0.2746219635009766 O
   0.5000000000000000    0.0000000000000000    0.7253780364990234 O
   0.2746219635009766    0.5000000000000000    0.0000000000000000 O
   0.7253780364990234    0.5000000000000000    0.0000000000000000 O
   0.5000000000000000    0.2746219635009766    0.0000000000000000 O
   0.5000000000000000    0.7253780364990234    0.0000000000000000 O
   0.5000000000000000    0.5000000000000000    0.7746219635009766 O
   0.5000000000000000    0.5000000000000000    0.2253780364990234 O
