Pr4 Lu4 O12
1.0
   6.1068520415437009    0.0000000000000000   -0.0003992696802335
  -0.0005414818773361    8.2814540509012975   -0.0005414464760806
   0.0000000000000000    0.0000000000000000    5.7269515991210938
Lu O Pr O
4 4 4 8
direct
   0.0000000000000000    0.0000000000000000    0.0000000000000000 Lu
   0.5000000000000000    0.0000000000000000    0.5000000000000000 Lu
   0.0000000000000000    0.5000000000000000    0.0000000000000000 Lu
   0.5000000000000000    0.5000000000000000    0.5000000000000000 Lu
   0.0573730468750000    0.2500000000000000    0.8788146972656250 O
   0.4426269531250000    0.7500000000000000    0.3788146972656250 O
   0.9426269531250000    0.7500000000000000    0.1211853027343750 O
   0.5573730468750000    0.2500000000000000    0.6211853027343750 O
   0.4411621093750000    0.2500000000000000    0.0115203857421875 Pr
   0.0588378906250000    0.7500000000000000    0.5115203857421875 Pr
   0.5588378906250000    0.7500000000000000    0.9884796142578125 Pr
   0.9411621093750000    0.2500000000000000    0.4884796142578125 Pr
   0.1934051513671875    0.0623168945312500    0.3136596679687500 O
   0.3065948486328125    0.9376831054687500    0.8136596679687500 O
   0.8065948486328125    0.5623168945312500    0.6863403320312500 O
   0.6934051513671875    0.4376831054687500    0.1863403320312500 O
   0.8065948486328125    0.9376831054687500    0.6863403320312500 O
   0.6934051513671875    0.0623168945312500    0.1863403320312500 O
   0.1934051513671875    0.4376831054687500    0.3136596679687500 O
   0.3065948486328125    0.5623168945312500    0.8136596679687500 O
