Pr2 Co2 Ge8
1.0
   3.9846513186167365    0.0000000000000000   -0.0002605189133457
  -0.0002750970269278    4.2073492823985115   -0.0002750790415056
   0.0000000000000000    0.0000000000000000   16.1938514709472656
Ge Pr Co Ge
4 2 2 4
direct
   0.0000000000000000    0.0000000000000000    0.6773004531860352 Ge
   0.0000000000000000    0.5000000000000000    0.1773004531860352 Ge
   0.0000000000000000    0.5000000000000000    0.8511962890625000 Ge
   0.0000000000000000    0.0000000000000000    0.3511962890625000 Ge
   0.0000000000000000    0.0000000000000000    0.0020904541015625 Pr
   0.0000000000000000    0.5000000000000000    0.5020904541015625 Pr
   0.5000000000000000    0.5000000000000000    0.0963745117187500 Co
   0.5000000000000000    0.0000000000000000    0.5963745117187500 Co
   0.5000000000000000    0.5000000000000000    0.6717529296875000 Ge
   0.5000000000000000    0.0000000000000000    0.1717529296875000 Ge
   0.5000000000000000    0.0000000000000000    0.8539428710937500 Ge
   0.5000000000000000    0.5000000000000000    0.3539428710937500 Ge
