K8
1.0
   8.0194492168687255    0.0000000000000000   -0.0005243164403993
  -4.0092696551026830    6.9453093937282038   -0.0005243164403993
   0.0000000000000000    0.0000000000000000    6.3819508552551270
K
8
direct
   0.6666666865348816    0.3333333432674408    0.2500000000000000 K
   0.3333333134651184    0.6666666269302368    0.7500000000000000 K
   0.8643798828125000    0.7287597656250000    0.2500000000000000 K
   0.2712402343750000    0.1356201171875000    0.2500000000000000 K
   0.8643798828125000    0.1356201171875000    0.2500000000000000 K
   0.1356201171875000    0.2712402343750000    0.7500000000000000 K
   0.7287597656250000    0.8643798828125000    0.7500000000000000 K
   0.1356201171875000    0.8643798828125000    0.7500000000000000 K
