Ti12 O20
1.0
  25.8919883964703956    0.0000000000000000   -6.1892375231248744
  -0.0002552438654300    3.0807497329791738   -0.0002014212816390
   0.0000000000000000    0.0000000000000000    5.6614484786987305
O Ti
20 12
direct
   0.5938720703125000    0.0000000000000000    0.5587463378906250 O
   0.4061279296875000    0.0000000000000000    0.4412536621093750 O
   0.0938720703125000    0.5000000000000000    0.5587463378906250 O
   0.9061279296875000    0.5000000000000000    0.4412536621093750 O
   0.4384765625000000    0.0000000000000000    0.9212341308593750 O
   0.5615234375000000    0.0000000000000000    0.0787658691406250 O
   0.9384765625000000    0.5000000000000000    0.9212341308593750 O
   0.0615234375000000    0.5000000000000000    0.0787658691406250 O
   0.8419189453125000    0.0000000000000000    0.7105712890625000 O
   0.1580810546875000    0.0000000000000000    0.2894287109375000 O
   0.3419189453125000    0.5000000000000000    0.7105712890625000 O
   0.6580810546875000    0.5000000000000000    0.2894287109375000 O
   0.0001831054687500    0.0000000000000000    0.7257995605468750 O
   0.9998168945312500    0.0000000000000000    0.2742004394531250 O
   0.5001831054687500    0.5000000000000000    0.7257995605468750 O
   0.4998168945312500    0.5000000000000000    0.2742004394531250 O
   0.2388916015625000    0.0000000000000000    0.8167266845703125 O
   0.7611083984375000    0.0000000000000000    0.1832733154296875 O
   0.7388916015625000    0.5000000000000000    0.8167266845703125 O
   0.2611083984375000    0.5000000000000000    0.1832733154296875 O
   0.2086791992187500    0.0000000000000000    0.1352996826171875 Ti
   0.7913208007812500    0.0000000000000000    0.8647003173828125 Ti
   0.7086791992187500    0.5000000000000000    0.1352996826171875 Ti
   0.2913208007812500    0.5000000000000000    0.8647003173828125 Ti
   0.0931320190429688    0.0000000000000000    0.3208007812500000 Ti
   0.9068679809570312    0.0000000000000000    0.6791992187500000 Ti
   0.5931320190429688    0.5000000000000000    0.3208007812500000 Ti
   0.4068679809570312    0.5000000000000000    0.6791992187500000 Ti
   0.5443878173828125    0.0000000000000000    0.7616577148437500 Ti
   0.4556121826171875    0.0000000000000000    0.2383422851562500 Ti
   0.0443878173828125    0.5000000000000000    0.7616577148437500 Ti
   0.9556121826171875    0.5000000000000000    0.2383422851562500 Ti
