Ce3 In1 N1
1.0
   5.0457515608709294    0.0000000000000000   -0.0003298942889956
  -0.0003299158583890    5.0457515500851748   -0.0003298942889956
   0.0000000000000000    0.0000000000000000    5.0457515716552734
In N Ce
1 1 3
direct
   0.0000000000000000    0.0000000000000000    0.0000000000000000 In
   0.5000000000000000    0.5000000000000000    0.5000000000000000 N
   0.5000000000000000    0.5000000000000000    0.0000000000000000 Ce
   0.0000000000000000    0.5000000000000000    0.5000000000000000 Ce
   0.5000000000000000    0.0000000000000000    0.5000000000000000 Ce
