K12 Se4 O8
1.0
  10.1069647422538971    0.0000000000000000   -3.1956854635214116
  -0.0006665814482933    7.4692515869823106   -0.0004883441885125
   0.0000000000000000    0.0000000000000000    7.2465462684631348
K O Se K
4 8 4 8
direct
   0.0000000000000000    0.7146224975585938    0.0000000000000000 K
   0.0000000000000000    0.2853775024414062    0.0000000000000000 K
   0.5000000000000000    0.2146224975585938    0.0000000000000000 K
   0.5000000000000000    0.7853775024414062    0.0000000000000000 K
   0.6002807617187500    0.0000000000000000    0.7585449218750000 O
   0.3997192382812500    0.0000000000000000    0.2414550781250000 O
   0.1002807617187500    0.5000000000000000    0.7585449218750000 O
   0.8997192382812500    0.5000000000000000    0.2414550781250000 O
   0.0566406250000000    0.0000000000000000    0.2869720458984375 O
   0.9433593750000000    0.0000000000000000    0.7130279541015625 O
   0.5566406250000000    0.5000000000000000    0.2869720458984375 O
   0.4433593750000000    0.5000000000000000    0.7130279541015625 O
   0.1945495605468750    0.0000000000000000    0.1642456054687500 Se
   0.8054504394531250    0.0000000000000000    0.8357543945312500 Se
   0.6945495605468750    0.5000000000000000    0.1642456054687500 Se
   0.3054504394531250    0.5000000000000000    0.8357543945312500 Se
   0.1467895507812500    0.1950988769531250    0.6281127929687500 K
   0.8532104492187500    0.1950988769531250    0.3718872070312500 K
   0.8532104492187500    0.8049011230468750    0.3718872070312500 K
   0.1467895507812500    0.8049011230468750    0.6281127929687500 K
   0.6467895507812500    0.6950988769531250    0.6281127929687500 K
   0.3532104492187500    0.6950988769531250    0.3718872070312500 K
   0.3532104492187500    0.3049011230468750    0.3718872070312500 K
   0.6467895507812500    0.3049011230468750    0.6281127929687500 K
