Mn2 Tl2 Ga4 Se8
1.0
   5.7007474777449243    0.0000000000000000   -0.0003727183182181
  -0.0003727426875639    5.7007474655590569   -0.0003727183182181
   0.0000000000000000    0.0000000000000000   11.1372518539428711
Mn Ga Tl Se
2 4 2 8
direct
   0.0000000000000000    0.0000000000000000    0.0000000000000000 Mn
   0.5000000000000000    0.5000000000000000    0.5000000000000000 Mn
   0.0000000000000000    0.0000000000000000    0.5000000000000000 Ga
   0.5000000000000000    0.5000000000000000    0.0000000000000000 Ga
   0.0000000000000000    0.5000000000000000    0.2500000000000000 Ga
   0.5000000000000000    0.0000000000000000    0.7500000000000000 Ga
   0.5000000000000000    0.0000000000000000    0.2500000000000000 Tl
   0.0000000000000000    0.5000000000000000    0.7500000000000000 Tl
   0.7243652343750000    0.7765197753906250    0.8846435546875000 Se
   0.2756347656250000    0.2234802246093750    0.8846435546875000 Se
   0.7765197753906250    0.2756347656250000    0.1153564453125000 Se
   0.2234802246093750    0.7243652343750000    0.1153564453125000 Se
   0.2243652343750000    0.2765197753906250    0.3846435546875000 Se
   0.7756347656250000    0.7234802246093750    0.3846435546875000 Se
   0.2765197753906250    0.7756347656250000    0.6153564453125000 Se
   0.7234802246093750    0.2243652343750000    0.6153564453125000 Se
