Er2 Ge4 Pd4
1.0
   4.3514499571302592    0.0000000000000000   -0.0002845004301915
  -0.0002845190316099    4.3514499478286384   -0.0002845004301915
   0.0000000000000000    0.0000000000000000   10.5215511322021484
Er Pd Ge
2 4 4
direct
   0.0000000000000000    0.0000000000000000    0.0000000000000000 Er
   0.5000000000000000    0.5000000000000000    0.5000000000000000 Er
   0.0000000000000000    0.5000000000000000    0.2500000000000000 Pd
   0.5000000000000000    0.0000000000000000    0.2500000000000000 Pd
   0.0000000000000000    0.5000000000000000    0.7500000000000000 Pd
   0.5000000000000000    0.0000000000000000    0.7500000000000000 Pd
   0.0000000000000000    0.0000000000000000    0.6283569335937500 Ge
   0.0000000000000000    0.0000000000000000    0.3716430664062500 Ge
   0.5000000000000000    0.5000000000000000    0.1283569335937500 Ge
   0.5000000000000000    0.5000000000000000    0.8716430664062500 Ge
