Ti4 V2 Fe2 O12
1.0
   5.4579075605403640    0.0000000000000000   -3.2311737068641357
  -0.0007183950089176    6.2640470912605597   -0.0004095471903574
   0.0000000000000000    0.0000000000000000    6.7880482673645020
Fe V O Ti
2 2 12 4
direct
   0.5000000000000000    0.0000000000000000    0.0000000000000000 Fe
   0.5000000000000000    0.5000000000000000    0.5000000000000000 Fe
   0.0000000000000000    0.0000000000000000    0.5000000000000000 V
   0.0000000000000000    0.5000000000000000    0.0000000000000000 V
   0.1276626586914062    0.6742553710937500    0.4756164550781250 O
   0.8723373413085938    0.1742553710937500    0.0243835449218750 O
   0.8723373413085938    0.3257446289062500    0.5243835449218750 O
   0.1276626586914062    0.8257446289062500    0.9756164550781250 O
   0.7873535156250000    0.7770690917968750    0.0822753906250000 O
   0.2126464843750000    0.2770690917968750    0.4177246093750000 O
   0.2126464843750000    0.2229309082031250    0.9177246093750000 O
   0.7873535156250000    0.7229309082031250    0.5822753906250000 O
   0.5646667480468750    0.0313110351562500    0.3041992187500000 O
   0.4353332519531250    0.5313110351562500    0.1958007812500000 O
   0.4353332519531250    0.9686889648437500    0.6958007812500000 O
   0.5646667480468750    0.4686889648437500    0.8041992187500000 O
   0.2071323394775391    0.0763244628906250    0.1841430664062500 Ti
   0.7928676605224609    0.5763244628906250    0.3158569335937500 Ti
   0.7928676605224609    0.9236755371093750    0.8158569335937500 Ti
   0.2071323394775391    0.4236755371093750    0.6841430664062500 Ti
