Ce8 Rh16
1.0
   7.5740494566207328    0.0000000000000000   -0.0004951959346723
  -0.0004952283119405    7.5740494404305112   -0.0004951959346723
   0.0000000000000000    0.0000000000000000    7.5740494728088379
Ce Rh
8 16
direct
   0.8750000000000000    0.8750000000000000    0.8750000000000000 Ce
   0.8750000000000000    0.3750000000000000    0.3750000000000000 Ce
   0.3750000000000000    0.3750000000000000    0.8750000000000000 Ce
   0.3750000000000000    0.8750000000000000    0.3750000000000000 Ce
   0.6250000000000000    0.1250000000000000    0.6250000000000000 Ce
   0.1250000000000000    0.1250000000000000    0.1250000000000000 Ce
   0.1250000000000000    0.6250000000000000    0.6250000000000000 Ce
   0.6250000000000000    0.6250000000000000    0.1250000000000000 Ce
   0.2500000000000000    0.0000000000000000    0.7500000000000000 Rh
   0.5000000000000000    0.2500000000000000    0.2500000000000000 Rh
   0.0000000000000000    0.5000000000000000    0.0000000000000000 Rh
   0.7500000000000000    0.7500000000000000    0.5000000000000000 Rh
   0.7500000000000000    0.2500000000000000    0.0000000000000000 Rh
   0.2500000000000000    0.5000000000000000    0.2500000000000000 Rh
   0.0000000000000000    0.0000000000000000    0.5000000000000000 Rh
   0.5000000000000000    0.7500000000000000    0.7500000000000000 Rh
   0.0000000000000000    0.7500000000000000    0.2500000000000000 Rh
   0.2500000000000000    0.2500000000000000    0.5000000000000000 Rh
   0.5000000000000000    0.0000000000000000    0.0000000000000000 Rh
   0.7500000000000000    0.5000000000000000    0.7500000000000000 Rh
   0.7500000000000000    0.0000000000000000    0.2500000000000000 Rh
   0.2500000000000000    0.7500000000000000    0.0000000000000000 Rh
   0.0000000000000000    0.2500000000000000    0.7500000000000000 Rh
   0.5000000000000000    0.5000000000000000    0.5000000000000000 Rh
