Li6 Cr2 Co2 O10
1.0
   4.8864035796229546    0.0000000000000000   -1.1484576966928444
  -1.8144636959029461    4.9858661928088335   -1.2536182591814677
   0.0000000000000000    0.0000000000000000    7.4168510437011719
Li O Cr Co
6 10 2 2
direct
   0.0930175781250000    0.6892089843750000    0.6956787109375000 Li
   0.9069824218750000    0.3107910156250000    0.3043212890625000 Li
   0.1538085937500000    0.4141235351562500    0.9577636718750000 Li
   0.8461914062500000    0.5858764648437500    0.0422363281250000 Li
   0.6855010986328125    0.9562988281250000    0.9192352294921875 Li
   0.3144989013671875    0.0437011718750000    0.0807647705078125 Li
   0.4481201171875000    0.9446716308593750    0.6584625244140625 O
   0.5518798828125000    0.0553283691406250    0.3415374755859375 O
   0.9336547851562500    0.9502258300781250    0.1765747070312500 O
   0.0663452148437500    0.0497741699218750    0.8234252929687500 O
   0.1423339843750000    0.3097839355468750    0.5670166015625000 O
   0.8576660156250000    0.6902160644531250    0.4329833984375000 O
   0.7819824218750000    0.4234085083007812    0.7655029296875000 O
   0.2180175781250000    0.5765914916992188    0.2344970703125000 O
   0.5812988281250000    0.3207397460937500    0.0629730224609375 O
   0.4187011718750000    0.6792602539062500    0.9370269775390625 O
   0.5901870727539062    0.7033691406250000    0.2260742187500000 Cr
   0.4098129272460938    0.2966308593750000    0.7739257812500000 Cr
   0.2008056640625000    0.8849182128906250    0.3855285644531250 Co
   0.7991943359375000    0.1150817871093750    0.6144714355468750 Co
