La4 Si4 Ni4
1.0
   4.1942510515214178    0.0000000000000000   -0.0002742226706604
  -0.0002742406000906    4.1942510425558233   -0.0002742226706604
   0.0000000000000000    0.0000000000000000   16.0497512817382812
Si Ni La
4 4 4
direct
   0.5000000000000000    0.0000000000000000    0.1715393066406250 Si
   0.0000000000000000    0.5000000000000000    0.6715393066406250 Si
   0.0000000000000000    0.0000000000000000    0.4215393066406250 Si
   0.5000000000000000    0.5000000000000000    0.9215393066406250 Si
   0.5000000000000000    0.5000000000000000    0.0828189849853516 Ni
   0.0000000000000000    0.0000000000000000    0.5828189849853516 Ni
   0.5000000000000000    0.0000000000000000    0.3328189849853516 Ni
   0.0000000000000000    0.5000000000000000    0.8328189849853516 Ni
   0.5000000000000000    0.0000000000000000    0.7544593811035156 La
   0.0000000000000000    0.5000000000000000    0.2544593811035156 La
   0.0000000000000000    0.0000000000000000    0.0044593811035156 La
   0.5000000000000000    0.5000000000000000    0.5044593811035156 La
