Li1 Mn2 P1 N2
1.0
   4.0370521459125763    0.0000000000000000   -0.0002639449111292
  -0.0002639621685713    4.0370521372830090   -0.0002639449111292
   0.0000000000000000    0.0000000000000000    5.4387507438659668
Li P N Mn
1 1 2 2
direct
   0.0000000000000000    0.0000000000000000    0.0000000000000000 Li
   0.5000000000000000    0.5000000000000000    0.5000000000000000 P
   0.0000000000000000    0.5000000000000000    0.9418029785156250 N
   0.5000000000000000    0.0000000000000000    0.0581970214843750 N
   0.0000000000000000    0.5000000000000000    0.6515197753906250 Mn
   0.5000000000000000    0.0000000000000000    0.3484802246093750 Mn
