Ba4 In4 Sn4 N4
1.0
   7.8491525482263551    0.0000000000000000   -0.0005131823411988
  -0.0002699579358799    4.1287517371107283   -0.0002699402864437
   0.0000000000000000    0.0000000000000000   14.7397480010986328
N In Sn Ba
4 4 4 4
direct
   0.5765075683593750    0.2500000000000000    0.3588867187500000 N
   0.9234924316406250    0.7500000000000000    0.8588867187500000 N
   0.4234924316406250    0.7500000000000000    0.6411132812500000 N
   0.0765075683593750    0.2500000000000000    0.1411132812500000 N
   0.9318237304687500    0.2500000000000000    0.9030761718750000 In
   0.5681762695312500    0.7500000000000000    0.4030761718750000 In
   0.0681762695312500    0.7500000000000000    0.0969238281250000 In
   0.4318237304687500    0.2500000000000000    0.5969238281250000 In
   0.8229370117187500    0.2500000000000000    0.5612792968750000 Sn
   0.6770629882812500    0.7500000000000000    0.0612792968750000 Sn
   0.1770629882812500    0.7500000000000000    0.4387207031250000 Sn
   0.3229370117187500    0.2500000000000000    0.9387207031250000 Sn
   0.8949584960937500    0.2500000000000000    0.2957763671875000 Ba
   0.6050415039062500    0.7500000000000000    0.7957763671875000 Ba
   0.1050415039062500    0.7500000000000000    0.7042236328125000 Ba
   0.3949584960937500    0.2500000000000000    0.2042236328125000 Ba
