Rb4 Ba4 Dy4 S12
1.0
   3.9846513186167365    0.0000000000000000   -0.0002605189133457
  -0.0008806720505049   13.4690474888078473   -0.0008806144735155
   0.0000000000000000    0.0000000000000000   10.1809492111206055
Dy S Rb Ba S
4 4 4 4 8
direct
   0.0000000000000000    0.0000000000000000    0.0000000000000000 Dy
   0.0000000000000000    0.0000000000000000    0.5000000000000000 Dy
   0.5000000000000000    0.5000000000000000    0.0000000000000000 Dy
   0.5000000000000000    0.5000000000000000    0.5000000000000000 Dy
   0.5000000000000000    0.5827331542968750    0.2500000000000000 S
   0.5000000000000000    0.4172668457031250    0.7500000000000000 S
   0.0000000000000000    0.0827331542968750    0.2500000000000000 S
   0.0000000000000000    0.9172668457031250    0.7500000000000000 S
   0.0000000000000000    0.7518310546875000    0.2500000000000000 Rb
   0.0000000000000000    0.2481689453125000    0.7500000000000000 Rb
   0.5000000000000000    0.2518310546875000    0.2500000000000000 Rb
   0.5000000000000000    0.7481689453125000    0.7500000000000000 Rb
   0.5000000000000000    0.9707489013671875    0.2500000000000000 Ba
   0.5000000000000000    0.0292510986328125    0.7500000000000000 Ba
   0.0000000000000000    0.4707489013671875    0.2500000000000000 Ba
   0.0000000000000000    0.5292510986328125    0.7500000000000000 Ba
   0.0000000000000000    0.6237335205078125    0.5282592773437500 S
   0.0000000000000000    0.3762664794921875    0.0282592773437500 S
   0.0000000000000000    0.6237335205078125    0.9717407226562500 S
   0.0000000000000000    0.3762664794921875    0.4717407226562500 S
   0.5000000000000000    0.1237335205078125    0.5282592773437500 S
   0.5000000000000000    0.8762664794921875    0.0282592773437500 S
   0.5000000000000000    0.1237335205078125    0.9717407226562500 S
   0.5000000000000000    0.8762664794921875    0.4717407226562500 S
