Ti4 Ni2 B4
1.0
   6.0151524415199642    0.0000000000000000   -0.0003932743049190
  -0.0003933000182716    6.0151524286620273   -0.0003932743049190
   0.0000000000000000    0.0000000000000000    3.2903494834899902
Ni B Ti
2 4 4
direct
   0.0000000000000000    0.0000000000000000    0.0000000000000000 Ni
   0.5000000000000000    0.5000000000000000    0.0000000000000000 Ni
   0.8881530761718750    0.6118469238281250    0.0000000000000000 B
   0.1118469238281250    0.3881530761718750    0.0000000000000000 B
   0.3881530761718750    0.8881530761718750    0.0000000000000000 B
   0.6118469238281250    0.1118469238281250    0.0000000000000000 B
   0.6833648681640625    0.8166351318359375    0.5000000000000000 Ti
   0.3166351318359375    0.1833648681640625    0.5000000000000000 Ti
   0.1833648681640625    0.6833648681640625    0.5000000000000000 Ti
   0.8166351318359375    0.3166351318359375    0.5000000000000000 Ti
