Bi16 Cl4 O8
1.0
   4.1418504626441566    0.0000000000000000   -0.0002707966884648
  -0.0008909507314477   13.6262502087779112   -0.0008908924824539
   0.0000000000000000    0.0000000000000000    9.4604501724243164
O Cl Bi
8 4 16
direct
   0.0000000000000000    0.0000000000000000    0.0000000000000000 O
   0.0000000000000000    0.0000000000000000    0.5000000000000000 O
   0.5000000000000000    0.5000000000000000    0.0000000000000000 O
   0.5000000000000000    0.5000000000000000    0.5000000000000000 O
   0.5000000000000000    0.9382324218750000    0.2500000000000000 O
   0.5000000000000000    0.0617675781250000    0.7500000000000000 O
   0.0000000000000000    0.4382324218750000    0.2500000000000000 O
   0.0000000000000000    0.5617675781250000    0.7500000000000000 O
   0.0000000000000000    0.2083435058593750    0.2500000000000000 Cl
   0.0000000000000000    0.7916564941406250    0.7500000000000000 Cl
   0.5000000000000000    0.7083435058593750    0.2500000000000000 Cl
   0.5000000000000000    0.2916564941406250    0.7500000000000000 Cl
   0.5000000000000000    0.9280548095703125    0.9040222167968750 Bi
   0.5000000000000000    0.0719451904296875    0.4040222167968750 Bi
   0.5000000000000000    0.9280548095703125    0.5959777832031250 Bi
   0.5000000000000000    0.0719451904296875    0.0959777832031250 Bi
   0.0000000000000000    0.4280548095703125    0.9040222167968750 Bi
   0.0000000000000000    0.5719451904296875    0.4040222167968750 Bi
   0.0000000000000000    0.4280548095703125    0.5959777832031250 Bi
   0.0000000000000000    0.5719451904296875    0.0959777832031250 Bi
   0.0000000000000000    0.8522338867187500    0.1146850585937500 Bi
   0.0000000000000000    0.1477661132812500    0.6146850585937500 Bi
   0.0000000000000000    0.8522338867187500    0.3853149414062500 Bi
   0.0000000000000000    0.1477661132812500    0.8853149414062500 Bi
   0.5000000000000000    0.3522338867187500    0.1146850585937500 Bi
   0.5000000000000000    0.6477661132812500    0.6146850585937500 Bi
   0.5000000000000000    0.3522338867187500    0.3853149414062500 Bi
   0.5000000000000000    0.6477661132812500    0.8853149414062500 Bi
