Ca2 P2 H12 O12
1.0
   5.5435523868333405    0.0000000000000000   -0.0003624408080941
  -2.7714617007926101    4.8010387528747733   -0.0003624408080941
   0.0000000000000000    0.0000000000000000   10.3119468688964844
Ca P H O
2 2 12 12
direct
   0.0000000000000000    0.0000000000000000    0.2500000000000000 Ca
   0.0000000000000000    0.0000000000000000    0.7500000000000000 Ca
   0.0000000000000000    0.0000000000000000    0.0000000000000000 P
   0.0000000000000000    0.0000000000000000    0.5000000000000000 P
   0.5545654296875000    0.7382507324218750    0.9419555664062500 H
   0.2617492675781250    0.8163146972656250    0.9419555664062500 H
   0.1836853027343750    0.4454345703125000    0.9419555664062500 H
   0.4454345703125000    0.2617492675781250    0.4419555664062500 H
   0.7382507324218750    0.1836853027343750    0.4419555664062500 H
   0.8163146972656250    0.5545654296875000    0.4419555664062500 H
   0.4454345703125000    0.2617492675781250    0.0580444335937500 H
   0.7382507324218750    0.1836853027343750    0.0580444335937500 H
   0.8163146972656250    0.5545654296875000    0.0580444335937500 H
   0.5545654296875000    0.7382507324218750    0.5580444335937500 H
   0.2617492675781250    0.8163146972656250    0.5580444335937500 H
   0.1836853027343750    0.4454345703125000    0.5580444335937500 H
   0.7427978515625000    0.0316162109375000    0.0862426757812500 O
   0.9683837890625000    0.7111816406250000    0.0862426757812500 O
   0.2888183593750000    0.2572021484375000    0.0862426757812500 O
   0.2572021484375000    0.9683837890625000    0.5862426757812500 O
   0.0316162109375000    0.2888183593750000    0.5862426757812500 O
   0.7111816406250000    0.7427978515625000    0.5862426757812500 O
   0.2572021484375000    0.9683837890625000    0.9137573242187500 O
   0.0316162109375000    0.2888183593750000    0.9137573242187500 O
   0.7111816406250000    0.7427978515625000    0.9137573242187500 O
   0.7427978515625000    0.0316162109375000    0.4137573242187500 O
   0.9683837890625000    0.7111816406250000    0.4137573242187500 O
   0.2888183593750000    0.2572021484375000    0.4137573242187500 O
