Mn6 Ge2
1.0
   3.7750477710147980    0.0000000000000000   -0.0002468149066238
  -0.0002468310440593    3.7750477629452890   -0.0002468149066238
   0.0000000000000000    0.0000000000000000    7.7181501388549805
Ge Mn
2 6
direct
   0.0000000000000000    0.0000000000000000    0.0000000000000000 Ge
   0.5000000000000000    0.5000000000000000    0.5000000000000000 Ge
   0.5000000000000000    0.5000000000000000    0.0000000000000000 Mn
   0.0000000000000000    0.0000000000000000    0.5000000000000000 Mn
   0.0000000000000000    0.5000000000000000    0.2500000000000000 Mn
   0.5000000000000000    0.0000000000000000    0.2500000000000000 Mn
   0.0000000000000000    0.5000000000000000    0.7500000000000000 Mn
   0.5000000000000000    0.0000000000000000    0.7500000000000000 Mn
