Zn16 P4 N12
1.0
  11.0193471673051526    0.0000000000000000   -0.0007204515829008
  -0.0005611820329361    8.5827493300698343   -0.0005611453437146
   0.0000000000000000    0.0000000000000000    5.6090478897094727
N P N Zn
4 4 8 16
direct
   0.0000000000000000    0.7026367187500000    0.8986511230468750 N
   0.0000000000000000    0.2973632812500000    0.3986511230468750 N
   0.5000000000000000    0.2026367187500000    0.8986511230468750 N
   0.5000000000000000    0.7973632812500000    0.3986511230468750 N
   0.0000000000000000    0.2878417968750000    0.1054687500000000 P
   0.0000000000000000    0.7121582031250000    0.6054687500000000 P
   0.5000000000000000    0.7878417968750000    0.1054687500000000 P
   0.5000000000000000    0.2121582031250000    0.6054687500000000 P
   0.3643798828125000    0.1719970703125000    0.5025634765625000 N
   0.6356201171875000    0.8280029296875000    0.0025634765625000 N
   0.3643798828125000    0.8280029296875000    0.0025634765625000 N
   0.6356201171875000    0.1719970703125000    0.5025634765625000 N
   0.8643798828125000    0.6719970703125000    0.5025634765625000 N
   0.1356201171875000    0.3280029296875000    0.0025634765625000 N
   0.8643798828125000    0.3280029296875000    0.0025634765625000 N
   0.1356201171875000    0.6719970703125000    0.5025634765625000 N
   0.6221923828125000    0.9497795104980469    0.6382904052734375 Zn
   0.3778076171875000    0.0502204895019531    0.1382904052734375 Zn
   0.6221923828125000    0.0502204895019531    0.1382904052734375 Zn
   0.3778076171875000    0.9497795104980469    0.6382904052734375 Zn
   0.1221923828125000    0.4497795104980469    0.6382904052734375 Zn
   0.8778076171875000    0.5502204895019531    0.1382904052734375 Zn
   0.1221923828125000    0.5502204895019531    0.1382904052734375 Zn
   0.8778076171875000    0.4497795104980469    0.6382904052734375 Zn
   0.8024902343750000    0.2193145751953125    0.3286895751953125 Zn
   0.1975097656250000    0.7806854248046875    0.8286895751953125 Zn
   0.8024902343750000    0.7806854248046875    0.8286895751953125 Zn
   0.1975097656250000    0.2193145751953125    0.3286895751953125 Zn
   0.3024902343750000    0.7193145751953125    0.3286895751953125 Zn
   0.6975097656250000    0.2806854248046875    0.8286895751953125 Zn
   0.3024902343750000    0.2806854248046875    0.8286895751953125 Zn
   0.6975097656250000    0.7193145751953125    0.3286895751953125 Zn
