Tb8 P4
1.0
  17.0977477661911585    0.0000000000000000   -0.0011178610906044
  -0.0002494008545957    3.8143505887050075   -0.0002493845491500
   0.0000000000000000    0.0000000000000000    3.9191484451293945
P Tb
4 8
direct
   0.3890380859375000    0.2500000000000000    0.2391662597656250 P
   0.1109619140625000    0.7500000000000000    0.7391662597656250 P
   0.6109619140625000    0.7500000000000000    0.7608337402343750 P
   0.8890380859375000    0.2500000000000000    0.2608337402343750 P
   0.0611572265625000    0.2500000000000000    0.2597885131835938 Tb
   0.4388427734375000    0.7500000000000000    0.7597885131835938 Tb
   0.9388427734375000    0.7500000000000000    0.7402114868164062 Tb
   0.5611572265625000    0.2500000000000000    0.2402114868164062 Tb
   0.7420043945312500    0.2500000000000000    0.7511291503906250 Tb
   0.7579956054687500    0.7500000000000000    0.2511291503906250 Tb
   0.2579956054687500    0.7500000000000000    0.2488708496093750 Tb
   0.2420043945312500    0.2500000000000000    0.7488708496093750 Tb
