Sc1 Al1 Bi5
1.0
   4.3514499571302592    0.0000000000000000   -0.0002845004301915
  -0.0002845190316099    4.3514499478286384   -0.0002845004301915
   0.0000000000000000    0.0000000000000000   10.1547527313232422
Sc Al Bi
1 1 5
direct
   0.0000000000000000    0.0000000000000000    0.0000000000000000 Sc
   0.5000000000000000    0.5000000000000000    0.5000000000000000 Al
   0.0000000000000000    0.0000000000000000    0.5000000000000000 Bi
   0.5000000000000000    0.0000000000000000    0.2587890625000000 Bi
   0.0000000000000000    0.5000000000000000    0.7412109375000000 Bi
   0.0000000000000000    0.5000000000000000    0.2067871093750000 Bi
   0.5000000000000000    0.0000000000000000    0.7932128906250000 Bi
