Eu2 Ge6 Pt2
1.0
   4.4169530774126216    0.0000000000000000   -0.0002887830638155
  -0.0002888019452442    4.4169530679709812   -0.0002887830638155
   0.0000000000000000    0.0000000000000000   10.4953498840332031
Ge Eu Pt Ge
2 2 2 4
direct
   0.0000000000000000    0.0000000000000000    0.6006469726562500 Ge
   0.5000000000000000    0.5000000000000000    0.1006469726562500 Ge
   0.0000000000000000    0.0000000000000000    0.0078125000000000 Eu
   0.5000000000000000    0.5000000000000000    0.5078125000000000 Eu
   0.0000000000000000    0.0000000000000000    0.3627319335937500 Pt
   0.5000000000000000    0.5000000000000000    0.8627319335937500 Pt
   0.0000000000000000    0.5000000000000000    0.7531127929687500 Ge
   0.5000000000000000    0.0000000000000000    0.7531127929687500 Ge
   0.5000000000000000    0.0000000000000000    0.2531127929687500 Ge
   0.0000000000000000    0.5000000000000000    0.2531127929687500 Ge
