Na4 Mn4 F24
1.0
   5.8710517757818099    0.0000000000000000   -0.0003838529162331
  -0.0003838780135895    5.8710517632319013   -0.0003838529162331
   0.0000000000000000    0.0000000000000000   11.8053493499755859
Na Mn F
4 4 24
direct
   0.0000000000000000    0.0000000000000000    0.2500000000000000 Na
   0.0000000000000000    0.0000000000000000    0.7500000000000000 Na
   0.5000000000000000    0.5000000000000000    0.7500000000000000 Na
   0.5000000000000000    0.5000000000000000    0.2500000000000000 Na
   0.5000000000000000    0.0000000000000000    0.0000000000000000 Mn
   0.0000000000000000    0.5000000000000000    0.0000000000000000 Mn
   0.5000000000000000    0.0000000000000000    0.5000000000000000 Mn
   0.0000000000000000    0.5000000000000000    0.5000000000000000 Mn
   0.7048950195312500    0.7951049804687500    0.0000000000000000 F
   0.2951049804687500    0.2048950195312500    0.0000000000000000 F
   0.2048950195312500    0.7048950195312500    0.0000000000000000 F
   0.7951049804687500    0.2951049804687500    0.0000000000000000 F
   0.2951049804687500    0.7951049804687500    0.5000000000000000 F
   0.7048950195312500    0.2048950195312500    0.5000000000000000 F
   0.7951049804687500    0.7048950195312500    0.5000000000000000 F
   0.2048950195312500    0.2951049804687500    0.5000000000000000 F
   0.3567504882812500    0.1432495117187500    0.3714599609375000 F
   0.6432495117187500    0.8567504882812500    0.3714599609375000 F
   0.8567504882812500    0.3567504882812500    0.3714599609375000 F
   0.1432495117187500    0.6432495117187500    0.3714599609375000 F
   0.6432495117187500    0.1432495117187500    0.1285400390625000 F
   0.3567504882812500    0.8567504882812500    0.1285400390625000 F
   0.1432495117187500    0.3567504882812500    0.1285400390625000 F
   0.8567504882812500    0.6432495117187500    0.1285400390625000 F
   0.6432495117187500    0.8567504882812500    0.6285400390625000 F
   0.3567504882812500    0.1432495117187500    0.6285400390625000 F
   0.1432495117187500    0.6432495117187500    0.6285400390625000 F
   0.8567504882812500    0.3567504882812500    0.6285400390625000 F
   0.3567504882812500    0.8567504882812500    0.8714599609375000 F
   0.6432495117187500    0.1432495117187500    0.8714599609375000 F
   0.8567504882812500    0.6432495117187500    0.8714599609375000 F
   0.1432495117187500    0.3567504882812500    0.8714599609375000 F
