Mg4 Al4 V4 O16
1.0
   5.6352519868570772    0.0000000000000000   -0.0003684361834086
  -0.0003813084836545    5.8317532290065879   -0.0003812835542900
   0.0000000000000000    0.0000000000000000    8.4910497665405273
Mg Al V O
4 4 4 16
direct
   0.0000000000000000    0.0000000000000000    0.5000000000000000 Mg
   0.0000000000000000    0.5000000000000000    0.5000000000000000 Mg
   0.5000000000000000    0.5000000000000000    0.0000000000000000 Mg
   0.5000000000000000    0.0000000000000000    0.0000000000000000 Mg
   0.2500000000000000    0.2500000000000000    0.2500000000000000 Al
   0.7500000000000000    0.2500000000000000    0.2500000000000000 Al
   0.7500000000000000    0.7500000000000000    0.7500000000000000 Al
   0.2500000000000000    0.7500000000000000    0.7500000000000000 Al
   0.0000000000000000    0.2500000000000000    0.8739013671875000 V
   0.0000000000000000    0.7500000000000000    0.1260986328125000 V
   0.5000000000000000    0.7500000000000000    0.3739013671875000 V
   0.5000000000000000    0.2500000000000000    0.6260986328125000 V
   0.0000000000000000    0.0309448242187500    0.2537384033203125 O
   0.0000000000000000    0.4690551757812500    0.2537384033203125 O
   0.0000000000000000    0.5309448242187500    0.7462615966796875 O
   0.0000000000000000    0.9690551757812500    0.7462615966796875 O
   0.5000000000000000    0.5309448242187500    0.7537384033203125 O
   0.5000000000000000    0.9690551757812500    0.7537384033203125 O
   0.5000000000000000    0.0309448242187500    0.2462615966796875 O
   0.5000000000000000    0.4690551757812500    0.2462615966796875 O
   0.7523193359375000    0.2500000000000000    0.4832763671875000 O
   0.2476806640625000    0.2500000000000000    0.4832763671875000 O
   0.2476806640625000    0.7500000000000000    0.5167236328125000 O
   0.7523193359375000    0.7500000000000000    0.5167236328125000 O
   0.2523193359375000    0.7500000000000000    0.9832763671875000 O
   0.7476806640625000    0.7500000000000000    0.9832763671875000 O
   0.7476806640625000    0.2500000000000000    0.0167236328125000 O
   0.2523193359375000    0.2500000000000000    0.0167236328125000 O
