Lu2 Si4 Ni4
1.0
   3.9846513186167365    0.0000000000000000   -0.0002605189133457
  -0.0002605359467867    3.9846513100991809   -0.0002605189133457
   0.0000000000000000    0.0000000000000000    9.6307506561279297
Lu Ni Si
2 4 4
direct
   0.0000000000000000    0.0000000000000000    0.0000000000000000 Lu
   0.5000000000000000    0.5000000000000000    0.5000000000000000 Lu
   0.0000000000000000    0.5000000000000000    0.2500000000000000 Ni
   0.5000000000000000    0.0000000000000000    0.2500000000000000 Ni
   0.0000000000000000    0.5000000000000000    0.7500000000000000 Ni
   0.5000000000000000    0.0000000000000000    0.7500000000000000 Ni
   0.5000000000000000    0.5000000000000000    0.1224136352539062 Si
   0.5000000000000000    0.5000000000000000    0.8775863647460938 Si
   0.0000000000000000    0.0000000000000000    0.6224136352539062 Si
   0.0000000000000000    0.0000000000000000    0.3775863647460938 Si
