Yb3 Si3 Ag3
1.0
   7.1286496963727402    0.0000000000000000   -0.0004660754289452
  -3.5639204310197998    6.1738252044380726   -0.0004660754289452
   0.0000000000000000    0.0000000000000000    3.6964504718780518
Si Ag Yb
3 3 3
direct
   0.0000000000000000    0.0000000000000000    0.5000000000000000 Si
   0.6666666865348816    0.3333333432674408    0.0000000000000000 Si
   0.3333333432674408    0.6666666865348816    0.0000000000000000 Si
   0.2565307617187500    0.2565307617187500    0.0000000000000000 Ag
   0.7434692382812500    0.0000000000000000    0.0000000000000000 Ag
   0.0000000000000000    0.7434692382812500    0.0000000000000000 Ag
   0.5880813598632812    0.5880813598632812    0.5000000000000000 Yb
   0.4119186401367188    0.0000000000000000    0.5000000000000000 Yb
   0.0000000000000000    0.4119186401367188    0.5000000000000000 Yb
