Ca4 Tl16 Cd4 Te12
1.0
   9.5783500466667508    0.0000000000000000   -0.0006262383195598
  -0.0006322750320472    9.6700496260198729   -0.0006322336948743
   0.0000000000000000    0.0000000000000000   10.1809492111206055
Ca Cd Te Tl
4 4 12 16
direct
   0.0000000000000000    0.0000000000000000    0.0000000000000000 Ca
   0.0000000000000000    0.5000000000000000    0.0000000000000000 Ca
   0.5000000000000000    0.5000000000000000    0.5000000000000000 Ca
   0.5000000000000000    0.0000000000000000    0.5000000000000000 Ca
   0.2500000000000000    0.2500000000000000    0.2500000000000000 Cd
   0.7500000000000000    0.2500000000000000    0.2500000000000000 Cd
   0.7500000000000000    0.7500000000000000    0.7500000000000000 Cd
   0.2500000000000000    0.7500000000000000    0.7500000000000000 Cd
   0.0000000000000000    0.2500000000000000    0.3858642578125000 Te
   0.0000000000000000    0.7500000000000000    0.6141357421875000 Te
   0.5000000000000000    0.7500000000000000    0.8858642578125000 Te
   0.5000000000000000    0.2500000000000000    0.1141357421875000 Te
   0.1729125976562500    0.2500000000000000    0.9617614746093750 Te
   0.8270874023437500    0.2500000000000000    0.9617614746093750 Te
   0.8270874023437500    0.7500000000000000    0.0382385253906250 Te
   0.1729125976562500    0.7500000000000000    0.0382385253906250 Te
   0.6729125976562500    0.7500000000000000    0.4617614746093750 Te
   0.3270874023437500    0.7500000000000000    0.4617614746093750 Te
   0.3270874023437500    0.2500000000000000    0.5382385253906250 Te
   0.6729125976562500    0.2500000000000000    0.5382385253906250 Te
   0.1416549682617188    0.4472656250000000    0.6517333984375000 Tl
   0.8583450317382812    0.0527343750000000    0.6517333984375000 Tl
   0.8583450317382812    0.9472656250000000    0.3482666015625000 Tl
   0.1416549682617188    0.5527343750000000    0.3482666015625000 Tl
   0.8583450317382812    0.5527343750000000    0.3482666015625000 Tl
   0.1416549682617188    0.9472656250000000    0.3482666015625000 Tl
   0.1416549682617188    0.0527343750000000    0.6517333984375000 Tl
   0.8583450317382812    0.4472656250000000    0.6517333984375000 Tl
   0.6416549682617188    0.9472656250000000    0.1517333984375000 Tl
   0.3583450317382812    0.5527343750000000    0.1517333984375000 Tl
   0.3583450317382812    0.4472656250000000    0.8482666015625000 Tl
   0.6416549682617188    0.0527343750000000    0.8482666015625000 Tl
   0.3583450317382812    0.0527343750000000    0.8482666015625000 Tl
   0.6416549682617188    0.4472656250000000    0.8482666015625000 Tl
   0.6416549682617188    0.5527343750000000    0.1517333984375000 Tl
   0.3583450317382812    0.9472656250000000    0.1517333984375000 Tl
