Ca4 C4
1.0
   5.5959529757106026    0.0000000000000000   -0.0003658667902897
  -0.0003658907116638    5.5959529637487426   -0.0003658667902897
   0.0000000000000000    0.0000000000000000    5.5959529876708984
Ca C
4 4
direct
   0.0000000000000000    0.0000000000000000    0.0000000000000000 Ca
   0.0000000000000000    0.5000000000000000    0.5000000000000000 Ca
   0.5000000000000000    0.0000000000000000    0.5000000000000000 Ca
   0.5000000000000000    0.5000000000000000    0.0000000000000000 Ca
   0.5000000000000000    0.0000000000000000    0.0000000000000000 C
   0.0000000000000000    0.5000000000000000    0.0000000000000000 C
   0.0000000000000000    0.0000000000000000    0.5000000000000000 C
   0.5000000000000000    0.5000000000000000    0.5000000000000000 C
