Pa2 Si4
1.0
   3.9060501968822656    0.0000000000000000   -0.0002553799244645
  -0.0002553966219043    3.9060501885327272   -0.0002553799244645
   0.0000000000000000    0.0000000000000000    9.5914525985717773
Pa Si
2 4
direct
   0.0000000000000000    0.0000000000000000    0.0000000000000000 Pa
   0.5000000000000000    0.5000000000000000    0.5000000000000000 Pa
   0.0000000000000000    0.0000000000000000    0.3381347656250000 Si
   0.0000000000000000    0.0000000000000000    0.6618652343750000 Si
   0.5000000000000000    0.5000000000000000    0.1642456054687500 Si
   0.5000000000000000    0.5000000000000000    0.8357543945312500 Si
