Nb2 Cu2 O6
1.0
   4.7309884313897577    0.0000000000000000    0.0585258654083864
   0.0671579824660335    4.3356220037947883    2.4496507970408969
   0.0000000000000000    0.0000000000000000    5.0326538085937500
O Cu Nb
6 2 2
direct
   0.6105957031250000    0.9149169921875000    0.7069702148437500 O
   0.3894042968750000    0.0850830078125000    0.2930297851562500 O
   0.7343750000000000    0.4974365234375000    0.1511230468750000 O
   0.2656250000000000    0.5025634765625000    0.8488769531250000 O
   0.0509033203125000    0.7224121093750000    0.3529052734375000 O
   0.9490966796875000    0.2775878906250000    0.6470947265625000 O
   0.5297851562500000    0.2573699951171875    0.7327270507812500 Cu
   0.4702148437500000    0.7426300048828125    0.2672729492187500 Cu
   0.8799438476562500    0.6248168945312500    0.7344970703125000 Nb
   0.1200561523437500    0.3751831054687500    0.2655029296875000 Nb
