N4 O8
1.0
   4.3645520116982031    0.0000000000000000   -0.0002853570504440
  -0.0002853757078706    4.3645520023685753   -0.0002853570504440
   0.0000000000000000    0.0000000000000000    6.1461510658264160
N O
4 8
direct
   0.0000000000000000    0.5000000000000000    0.8971557617187500 N
   0.5000000000000000    0.0000000000000000    0.3971557617187500 N
   0.5000000000000000    0.5000000000000000    0.1471557617187500 N
   0.0000000000000000    0.0000000000000000    0.6471557617187500 N
   0.7445068359375000    0.0000000000000000    0.5156860351562500 O
   0.7554931640625000    0.5000000000000000    0.0156860351562500 O
   0.0000000000000000    0.2445068359375000    0.7656860351562500 O
   0.5000000000000000    0.2554931640625000    0.2656860351562500 O
   0.0000000000000000    0.7554931640625000    0.7656860351562500 O
   0.5000000000000000    0.7445068359375000    0.2656860351562500 O
   0.2445068359375000    0.5000000000000000    0.0156860351562500 O
   0.2554931640625000    0.0000000000000000    0.5156860351562500 O
