Sr8 I8
1.0
   6.9583492130331122    0.0000000000000000   -0.0004549410803374
  -0.0009928793368960   15.1851519889179567   -0.0009928144239662
   0.0000000000000000    0.0000000000000000    6.8928499221801758
Sr I
8 8
direct
   0.1365470886230469    0.2500000000000000    0.0000000000000000 Sr
   0.8634529113769531    0.7500000000000000    0.5000000000000000 Sr
   0.8634529113769531    0.7500000000000000    0.0000000000000000 Sr
   0.1365470886230469    0.2500000000000000    0.5000000000000000 Sr
   0.5422973632812500    0.3983764648437500    0.2500000000000000 Sr
   0.4577026367187500    0.6016235351562500    0.7500000000000000 Sr
   0.4577026367187500    0.8983764648437500    0.2500000000000000 Sr
   0.5422973632812500    0.1016235351562500    0.7500000000000000 Sr
   0.5037689208984375    0.6468505859375000    0.2500000000000000 I
   0.4962310791015625    0.3531494140625000    0.7500000000000000 I
   0.4962310791015625    0.1468505859375000    0.2500000000000000 I
   0.5037689208984375    0.8531494140625000    0.7500000000000000 I
   0.9718475341796875    0.9212226867675781    0.2500000000000000 I
   0.0281524658203125    0.0787773132324219    0.7500000000000000 I
   0.0281524658203125    0.4212226867675781    0.2500000000000000 I
   0.9718475341796875    0.5787773132324219    0.7500000000000000 I
