Ga2 As4 N8 O30
1.0
   7.2019288846751923    0.0000000000000000   -0.2768273233785277
  -0.0008492507995745   12.4996470849373953   -0.0008172344887680
   0.0000000000000000    0.0000000000000000    6.5260515213012695
O Ga N O As
2 2 8 28 4
direct
   0.0139160156250000    0.0000000000000000    0.7546386718750000 O
   0.5139160156250000    0.5000000000000000    0.7546386718750000 O
   0.2504882812500000    0.0000000000000000    0.7000732421875000 Ga
   0.7504882812500000    0.5000000000000000    0.7000732421875000 Ga
   0.1694335937500000    0.3678131103515625    0.4504394531250000 N
   0.1694335937500000    0.6321868896484375    0.4504394531250000 N
   0.6694335937500000    0.8678131103515625    0.4504394531250000 N
   0.6694335937500000    0.1321868896484375    0.4504394531250000 N
   0.7084960937500000    0.1535644531250000    0.2648925781250000 N
   0.7084960937500000    0.8464355468750000    0.2648925781250000 N
   0.2084960937500000    0.6535644531250000    0.2648925781250000 N
   0.2084960937500000    0.3464355468750000    0.2648925781250000 N
   0.2632751464843750    0.3104248046875000    0.0664062500000000 O
   0.2632751464843750    0.6895751953125000    0.0664062500000000 O
   0.7632751464843750    0.8104248046875000    0.0664062500000000 O
   0.7632751464843750    0.1895751953125000    0.0664062500000000 O
   0.5343017578125000    0.1664428710937500    0.3121948242187500 O
   0.5343017578125000    0.8335571289062500    0.3121948242187500 O
   0.0343017578125000    0.6664428710937500    0.3121948242187500 O
   0.0343017578125000    0.3335571289062500    0.3121948242187500 O
   0.2060546875000000    0.3632812500000000    0.6531982421875000 O
   0.2060546875000000    0.6367187500000000    0.6531982421875000 O
   0.7060546875000000    0.8632812500000000    0.6531982421875000 O
   0.7060546875000000    0.1367187500000000    0.6531982421875000 O
   0.3331298828125000    0.0981445312500000    0.9243316650390625 O
   0.3331298828125000    0.9018554687500000    0.9243316650390625 O
   0.8331298828125000    0.5981445312500000    0.9243316650390625 O
   0.8331298828125000    0.4018554687500000    0.9243316650390625 O
   0.5273437500000000    0.2604675292968750    0.8115234375000000 O
   0.5273437500000000    0.7395324707031250    0.8115234375000000 O
   0.0273437500000000    0.7604675292968750    0.8115234375000000 O
   0.0273437500000000    0.2395324707031250    0.8115234375000000 O
   0.3464355468750000    0.6007080078125000    0.3684234619140625 O
   0.3464355468750000    0.3992919921875000    0.3684234619140625 O
   0.8464355468750000    0.1007080078125000    0.3684234619140625 O
   0.8464355468750000    0.8992919921875000    0.3684234619140625 O
   0.7866210937500000    0.3708496093750000    0.5908203125000000 O
   0.7866210937500000    0.6291503906250000    0.5908203125000000 O
   0.2866210937500000    0.8708496093750000    0.5908203125000000 O
   0.2866210937500000    0.1291503906250000    0.5908203125000000 O
   0.7624511718750000    0.7326354980468750    0.7948608398437500 As
   0.7624511718750000    0.2673645019531250    0.7948608398437500 As
   0.2624511718750000    0.2326354980468750    0.7948608398437500 As
   0.2624511718750000    0.7673645019531250    0.7948608398437500 As
