Ni4 O1 F9
1.0
   5.8586435560251529    0.0000000000000000   -1.3632148520439575
  -2.0421427632240992    5.3811430407641225   -1.6074006937567691
   0.0000000000000000    0.0000000000000000    7.0238480567932129
O F Ni
1 9 4
direct
   0.5393066406250000    0.4232177734375000    0.8568115234375000 O
   0.0803222656250000    0.5317382812500000    0.8513183593750000 F
   0.9404296875000000    0.2277832031250000    0.0715332031250000 F
   0.7443847656250000    0.9046630859375000    0.6729736328125000 F
   0.0766601562500000    0.0591430664062500    0.4689941406250000 F
   0.4720458984375000    0.9276123046875000    0.8698730468750000 F
   0.4707031250000000    0.4478759765625000    0.4089355468750000 F
   0.0478515625000000    0.5190429687500000    0.4362792968750000 F
   0.2800292968750000    0.9545288085937500    0.1738281250000000 F
   0.6430664062500000    0.7205810546875000    0.2092285156250000 F
   0.7128906250000000    0.2290039062500000    0.8129882812500000 Ni
   0.1623535156250000    0.2404785156250000    0.3076171875000000 Ni
   0.8486328125000000    0.7260742187500000    0.4608154296875000 Ni
   0.3950195312500000    0.6887817382812500    0.9814453125000000 Ni
