Sr8 Ca4 Al20
1.0
  10.0499505781905327    0.0000000000000000   -0.0006570718475606
  -0.0011085122059240   16.9536475410501914   -0.0011084397330944
   0.0000000000000000    0.0000000000000000    5.1243534088134766
Al Ca Sr Al
4 4 8 16
direct
   0.5000000000000000    0.1876220703125000    0.2500000000000000 Al
   0.5000000000000000    0.8123779296875000    0.7500000000000000 Al
   0.0000000000000000    0.6876220703125000    0.2500000000000000 Al
   0.0000000000000000    0.3123779296875000    0.7500000000000000 Al
   0.0000000000000000    0.2014770507812500    0.2500000000000000 Ca
   0.0000000000000000    0.7985229492187500    0.7500000000000000 Ca
   0.5000000000000000    0.7014770507812500    0.2500000000000000 Ca
   0.5000000000000000    0.2985229492187500    0.7500000000000000 Ca
   0.0000000000000000    0.4252929687500000    0.2500000000000000 Sr
   0.0000000000000000    0.5747070312500000    0.7500000000000000 Sr
   0.5000000000000000    0.9252929687500000    0.2500000000000000 Sr
   0.5000000000000000    0.0747070312500000    0.7500000000000000 Sr
   0.5000000000000000    0.4440460205078125    0.2500000000000000 Sr
   0.5000000000000000    0.5559539794921875    0.7500000000000000 Sr
   0.0000000000000000    0.9440460205078125    0.2500000000000000 Sr
   0.0000000000000000    0.0559539794921875    0.7500000000000000 Sr
   0.2729339599609375    0.0949707031250000    0.2500000000000000 Al
   0.7270660400390625    0.9050292968750000    0.7500000000000000 Al
   0.7270660400390625    0.0949707031250000    0.2500000000000000 Al
   0.2729339599609375    0.9050292968750000    0.7500000000000000 Al
   0.7729339599609375    0.5949707031250000    0.2500000000000000 Al
   0.2270660400390625    0.4050292968750000    0.7500000000000000 Al
   0.2270660400390625    0.5949707031250000    0.2500000000000000 Al
   0.7729339599609375    0.4050292968750000    0.7500000000000000 Al
   0.2714538574218750    0.2983398437500000    0.2500000000000000 Al
   0.7285461425781250    0.7016601562500000    0.7500000000000000 Al
   0.7285461425781250    0.2983398437500000    0.2500000000000000 Al
   0.2714538574218750    0.7016601562500000    0.7500000000000000 Al
   0.7714538574218750    0.7983398437500000    0.2500000000000000 Al
   0.2285461425781250    0.2016601562500000    0.7500000000000000 Al
   0.2285461425781250    0.7983398437500000    0.2500000000000000 Al
   0.7714538574218750    0.2016601562500000    0.7500000000000000 Al
