Sr4 Li2 W2 O12
1.0
   5.7269515868808130    0.0000000000000000   -0.0003744315587231
  -0.0003744560400853    5.7269515746389317   -0.0003744315587231
   0.0000000000000000    0.0000000000000000    8.0063514709472656
W Li Sr O
2 2 4 12
direct
   0.0000000000000000    0.0000000000000000    0.0000000000000000 W
   0.5000000000000000    0.5000000000000000    0.5000000000000000 W
   0.5000000000000000    0.5000000000000000    0.0000000000000000 Li
   0.0000000000000000    0.0000000000000000    0.5000000000000000 Li
   0.5000000000000000    0.0000000000000000    0.2500000000000000 Sr
   0.0000000000000000    0.5000000000000000    0.2500000000000000 Sr
   0.5000000000000000    0.0000000000000000    0.7500000000000000 Sr
   0.0000000000000000    0.5000000000000000    0.7500000000000000 Sr
   0.5000000000000000    0.5000000000000000    0.2613220214843750 O
   0.5000000000000000    0.5000000000000000    0.7386779785156250 O
   0.0000000000000000    0.0000000000000000    0.7613220214843750 O
   0.0000000000000000    0.0000000000000000    0.2386779785156250 O
   0.8092956542968750    0.7167663574218750    0.0000000000000000 O
   0.1907043457031250    0.2832336425781250    0.0000000000000000 O
   0.2832336425781250    0.8092956542968750    0.0000000000000000 O
   0.7167663574218750    0.1907043457031250    0.0000000000000000 O
   0.3092956542968750    0.2167663574218750    0.5000000000000000 O
   0.6907043457031250    0.7832336425781250    0.5000000000000000 O
   0.7832336425781250    0.3092956542968750    0.5000000000000000 O
   0.2167663574218750    0.6907043457031250    0.5000000000000000 O
