Ba2 H10 Rh1 O8
1.0
   5.4125499609658725    0.0000000000000000   -0.0003538757902535
  -2.7059679197894857    4.6875830336135733   -0.0003538757902535
   0.0000000000000000    0.0000000000000000    7.8098497390747070
Rh Ba H O H O
1 2 4 2 6 6
direct
   0.0000000000000000    0.0000000000000000    0.0000000000000000 Rh
   0.0000000000000000    0.0000000000000000    0.6445312500000000 Ba
   0.0000000000000000    0.0000000000000000    0.3554687500000000 Ba
   0.6666666865348816    0.3333333432674408    0.5319519042968750 H
   0.3333333432674408    0.6666666865348816    0.4680480957031250 H
   0.6666666865348816    0.3333333432674408    0.3169212341308594 H
   0.3333333432674408    0.6666666865348816    0.6830787658691406 H
   0.6666666865348816    0.3333333432674408    0.4204101562500000 O
   0.3333333432674408    0.6666666865348816    0.5795898437500000 O
   0.8623657226562500    0.4326171875000000    0.8786010742187500 H
   0.5673828125000000    0.4297485351562500    0.8786010742187500 H
   0.5702514648437500    0.1376342773437500    0.8786010742187500 H
   0.4326171875000000    0.8623657226562500    0.1213989257812500 H
   0.4297485351562500    0.5673828125000000    0.1213989257812500 H
   0.1376342773437500    0.5702514648437500    0.1213989257812500 H
   0.3690185546875000    0.1532897949218750    0.8618774414062500 O
   0.8467102050781250    0.2157287597656250    0.8618774414062500 O
   0.7842712402343750    0.6309814453125000    0.8618774414062500 O
   0.1532897949218750    0.3690185546875000    0.1381225585937500 O
   0.2157287597656250    0.8467102050781250    0.1381225585937500 O
   0.6309814453125000    0.7842712402343750    0.1381225585937500 O
