Mn4 Al8 Cu8 Se16 S16
1.0
   9.5390510355202771    0.0000000000000000   -0.0006236689264409
  -0.0007607562054867   11.6350478628589542   -0.0007607064684116
   0.0000000000000000    0.0000000000000000    9.4997529983520508
Mn Al Cu Se S
4 8 8 16 16
direct
   0.0000000000000000    0.0000000000000000    0.0065460205078125 Mn
   0.0000000000000000    0.5000000000000000    0.5065460205078125 Mn
   0.5000000000000000    0.0000000000000000    0.5065460205078125 Mn
   0.5000000000000000    0.5000000000000000    0.0065460205078125 Mn
   0.2500000000000000    0.2500000000000000    0.7569580078125000 Al
   0.7500000000000000    0.7500000000000000    0.7569580078125000 Al
   0.2500000000000000    0.7500000000000000    0.7569580078125000 Al
   0.7500000000000000    0.2500000000000000    0.7569580078125000 Al
   0.2500000000000000    0.7500000000000000    0.2569580078125000 Al
   0.7500000000000000    0.2500000000000000    0.2569580078125000 Al
   0.2500000000000000    0.2500000000000000    0.2569580078125000 Al
   0.7500000000000000    0.7500000000000000    0.2569580078125000 Al
   0.2500000000000000    0.2500000000000000    0.4929199218750000 Cu
   0.7500000000000000    0.7500000000000000    0.4929199218750000 Cu
   0.2500000000000000    0.7500000000000000    0.4929199218750000 Cu
   0.7500000000000000    0.2500000000000000    0.4929199218750000 Cu
   0.2500000000000000    0.7500000000000000    0.9929199218750000 Cu
   0.7500000000000000    0.2500000000000000    0.9929199218750000 Cu
   0.2500000000000000    0.2500000000000000    0.9929199218750000 Cu
   0.7500000000000000    0.7500000000000000    0.9929199218750000 Cu
   0.8697814941406250    0.0000000000000000    0.7830677032470703 Se
   0.1302185058593750    0.0000000000000000    0.7830677032470703 Se
   0.8697814941406250    0.5000000000000000    0.2830677032470703 Se
   0.1302185058593750    0.5000000000000000    0.2830677032470703 Se
   0.3697814941406250    0.0000000000000000    0.2830677032470703 Se
   0.6302185058593750    0.0000000000000000    0.2830677032470703 Se
   0.3697814941406250    0.5000000000000000    0.7830677032470703 Se
   0.6302185058593750    0.5000000000000000    0.7830677032470703 Se
   0.7145080566406250    0.0000000000000000    0.0281982421875000 Se
   0.2854919433593750    0.0000000000000000    0.0281982421875000 Se
   0.7145080566406250    0.5000000000000000    0.5281982421875000 Se
   0.2854919433593750    0.5000000000000000    0.5281982421875000 Se
   0.2145080566406250    0.0000000000000000    0.5281982421875000 Se
   0.7854919433593750    0.0000000000000000    0.5281982421875000 Se
   0.2145080566406250    0.5000000000000000    0.0281982421875000 Se
   0.7854919433593750    0.5000000000000000    0.0281982421875000 Se
   0.3923339843750000    0.3463745117187500    0.1363525390625000 S
   0.6076660156250000    0.6536254882812500    0.1363525390625000 S
   0.3923339843750000    0.6536254882812500    0.1363525390625000 S
   0.6076660156250000    0.3463745117187500    0.1363525390625000 S
   0.3923339843750000    0.8463745117187500    0.6363525390625000 S
   0.6076660156250000    0.1536254882812500    0.6363525390625000 S
   0.3923339843750000    0.1536254882812500    0.6363525390625000 S
   0.6076660156250000    0.8463745117187500    0.6363525390625000 S
   0.8923339843750000    0.3463745117187500    0.6363525390625000 S
   0.1076660156250000    0.6536254882812500    0.6363525390625000 S
   0.8923339843750000    0.6536254882812500    0.6363525390625000 S
   0.1076660156250000    0.3463745117187500    0.6363525390625000 S
   0.8923339843750000    0.8463745117187500    0.1363525390625000 S
   0.1076660156250000    0.1536254882812500    0.1363525390625000 S
   0.8923339843750000    0.1536254882812500    0.1363525390625000 S
   0.1076660156250000    0.8463745117187500    0.1363525390625000 S
