Ba4 Ho4 Si12
1.0
   4.2859506515451535    0.0000000000000000   -0.0002802180459748
  -0.0016995262273049   25.9926489672530892   -0.0016994151148840
   0.0000000000000000    0.0000000000000000    4.0894532203674316
Si Ba Ho
12 4 4
direct
   0.0000000000000000    0.7502441406250000    0.2500000000000000 Si
   0.0000000000000000    0.2497558593750000    0.7500000000000000 Si
   0.5000000000000000    0.2502441406250000    0.2500000000000000 Si
   0.5000000000000000    0.7497558593750000    0.7500000000000000 Si
   0.5000000000000000    0.0261688232421875    0.2500000000000000 Si
   0.5000000000000000    0.9738311767578125    0.7500000000000000 Si
   0.0000000000000000    0.5261688232421875    0.2500000000000000 Si
   0.0000000000000000    0.4738311767578125    0.7500000000000000 Si
   0.0000000000000000    0.6138305664062500    0.2500000000000000 Si
   0.0000000000000000    0.3861694335937500    0.7500000000000000 Si
   0.5000000000000000    0.1138305664062500    0.2500000000000000 Si
   0.5000000000000000    0.8861694335937500    0.7500000000000000 Si
   0.5000000000000000    0.4360656738281250    0.2500000000000000 Ba
   0.5000000000000000    0.5639343261718750    0.7500000000000000 Ba
   0.0000000000000000    0.9360656738281250    0.2500000000000000 Ba
   0.0000000000000000    0.0639343261718750    0.7500000000000000 Ba
   0.0000000000000000    0.1823120117187500    0.2500000000000000 Ho
   0.0000000000000000    0.8176879882812500    0.7500000000000000 Ho
   0.5000000000000000    0.6823120117187500    0.2500000000000000 Ho
   0.5000000000000000    0.3176879882812500    0.7500000000000000 Ho
