Ho6 Co45 Ni6
1.0
   8.7399520687223404    0.0000000000000000   -0.0005714233526530
  -4.3694802060062727    7.5693067643532128   -0.0005714233526530
   0.0000000000000000    0.0000000000000000   12.9581489562988281
Ni Ho Co
6 6 45
direct
   0.0000000000000000    0.0000000000000000    0.0955200195312500 Ni
   0.0000000000000000    0.0000000000000000    0.9044799804687500 Ni
   0.6666666865348816    0.3333333432674408    0.4288533627986908 Ni
   0.6666666865348816    0.3333333432674408    0.2378133237361908 Ni
   0.3333333432674408    0.6666666865348816    0.7621867060661316 Ni
   0.3333333432674408    0.6666666865348816    0.5711466670036316 Ni
   0.3333333432674408    0.6666666865348816    0.0126342773437500 Ho
   0.6666666865348816    0.3333333432674408    0.9873657226562500 Ho
   0.0000000000000000    0.0000000000000000    0.3459676206111908 Ho
   0.3333333730697632    0.6666666865348816    0.3206990659236908 Ho
   0.6666666865348816    0.3333333730697632    0.6793009638786316 Ho
   0.0000000000000000    0.0000000000000000    0.6540324091911316 Ho
   0.3333333432674408    0.1666666716337204    0.1666666716337204 Co
   0.8333333134651184    0.1666666716337204    0.1666666716337204 Co
   0.8333333134651184    0.6666666269302368    0.1666666716337204 Co
   0.1666666716337204    0.3333333432674408    0.8333333134651184 Co
   0.1666666716337204    0.8333333134651184    0.8333333134651184 Co
   0.6666666269302368    0.8333333134651184    0.8333333134651184 Co
   0.0000000000000000    0.5000000000000000    0.5000000000000000 Co
   0.5000000000000000    0.5000000000000000    0.5000000000000000 Co
   0.5000000000000000    0.0000000000000000    0.5000000000000000 Co
   0.7126693725585938    0.7126693725585938    0.0000000000000000 Co
   0.2873306274414062    0.0000000000000000    0.0000000000000000 Co
   0.0000000000000000    0.2873306274414062    0.0000000000000000 Co
   0.2873306274414062    0.2873306274414062    0.0000000000000000 Co
   0.7126693725585938    0.0000000000000000    0.0000000000000000 Co
   0.0000000000000000    0.7126693725585938    0.0000000000000000 Co
   0.3793361186981201    0.0460027456283569    0.3333333432674408 Co
   0.9539973139762878    0.3333333432674408    0.3333333432674408 Co
   0.6666666865348816    0.6206640005111694    0.3333333432674408 Co
   0.9539973139762878    0.6206640005111694    0.3333333432674408 Co
   0.3793361186981201    0.3333333432674408    0.3333333432674408 Co
   0.6666666865348816    0.0460027456283569    0.3333333432674408 Co
   0.0460027456283569    0.3793361186981201    0.6666666865348816 Co
   0.6206640005111694    0.6666666865348816    0.6666666865348816 Co
   0.3333333432674408    0.9539973139762878    0.6666666865348816 Co
   0.6206640005111694    0.9539973139762878    0.6666666865348816 Co
   0.0460027456283569    0.6666666865348816    0.6666666865348816 Co
   0.3333333432674408    0.3793361186981201    0.6666666865348816 Co
   0.8346862792968750    0.6693725585937500    0.8147888183593750 Co
   0.3306274414062500    0.1653137207031250    0.8147888183593750 Co
   0.8346862792968750    0.1653137207031250    0.8147888183593750 Co
   0.6693725585937500    0.8346862792968750    0.1852111816406250 Co
   0.1653137207031250    0.3306274414062500    0.1852111816406250 Co
   0.1653137207031250    0.8346862792968750    0.1852111816406250 Co
   0.5013530254364014    0.0027059316635132    0.1481221914291382 Co
   0.9972941279411316    0.4986470639705658    0.1481221914291382 Co
   0.5013529658317566    0.4986470937728882    0.1481221914291382 Co
   0.3360393047332764    0.1680196523666382    0.5185445547103882 Co
   0.8319804072380066    0.6639608144760132    0.5185445547103882 Co
   0.8319804072380066    0.1680196225643158    0.5185445547103882 Co
   0.1680196523666382    0.3360393047332764    0.4814555644989014 Co
   0.6639608144760132    0.8319804072380066    0.4814555644989014 Co
   0.1680196225643158    0.8319804072380066    0.4814555644989014 Co
   0.0027059316635132    0.5013530254364014    0.8518778681755066 Co
   0.4986470639705658    0.9972941279411316    0.8518778681755066 Co
   0.4986470937728882    0.5013529658317566    0.8518778681755066 Co
