V4 As4 N16
1.0
   6.0806479324078122    0.0000000000000000   -0.0003975564397285
  -0.0003975824330588    6.0806479194098726   -0.0003975564397285
   0.0000000000000000    0.0000000000000000    6.0806479454040527
N V As N
4 4 4 12
direct
   0.5990295410156250    0.9009704589843750    0.0990295410156250 N
   0.9009704589843750    0.0990295410156250    0.5990295410156250 N
   0.4009704589843750    0.4009704589843750    0.4009704589843750 N
   0.0990295410156250    0.5990295410156250    0.9009704589843750 N
   0.5763092041015625    0.5763092041015625    0.5763092041015625 V
   0.9236907958984375    0.4236907958984375    0.0763092041015625 V
   0.4236907958984375    0.0763092041015625    0.9236907958984375 V
   0.0763092041015625    0.9236907958984375    0.4236907958984375 V
   0.1380310058593750    0.3619689941406250    0.6380310058593750 As
   0.3619689941406250    0.6380310058593750    0.1380310058593750 As
   0.8619689941406250    0.8619689941406250    0.8619689941406250 As
   0.6380310058593750    0.1380310058593750    0.3619689941406250 As
   0.5310058593750000    0.7624511718750000    0.8812255859375000 N
   0.9689941406250000    0.2375488281250000    0.3812255859375000 N
   0.4689941406250000    0.2624511718750000    0.6187744140625000 N
   0.0310058593750000    0.7375488281250000    0.1187744140625000 N
   0.8812255859375000    0.5310058593750000    0.7624511718750000 N
   0.3812255859375000    0.9689941406250000    0.2375488281250000 N
   0.6187744140625000    0.4689941406250000    0.2624511718750000 N
   0.1187744140625000    0.0310058593750000    0.7375488281250000 N
   0.7624511718750000    0.8812255859375000    0.5310058593750000 N
   0.2375488281250000    0.3812255859375000    0.9689941406250000 N
   0.2624511718750000    0.6187744140625000    0.4689941406250000 N
   0.7375488281250000    0.1187744140625000    0.0310058593750000 N
